     Program PWSCF v.5.2.0 starts on  6Sep2019 at  9:26:52

     Current dimensions of program PWSCF are:
     Max number of different atomic species (ntypx) = 10
     Max number of k-points (npk) =  40000
     Max angular momentum in pseudopotentials (lmaxx) =  3

     bravais-lattice index     =            0
     lattice parameter (alat)  =      27.8924  a.u.
     unit-cell volume          =   33945.5266 (a.u.)^3
     number of atoms/cell      =          153
     number of atomic types    =            4
     number of electrons       =       580.00
     number of Kohn-Sham states=          320
     kinetic-energy cutoff     =      60.0000  Ry
     charge density cutoff     =     240.0000  Ry
     convergence threshold     =      1.0E-06
     mixing beta               =       0.7000
     number of iterations used =            8  local-TF  mixing
     Exchange-correlation      = SLA-PW-PBX-PBC ( 1  4  3  4 0 0)
     nstep                     =           50

     celldm(1)=  27.892358  celldm(2)=   0.000000  celldm(3)=   0.000000
     celldm(4)=   0.000000  celldm(5)=   0.000000  celldm(6)=   0.000000

     crystal axes: (cart. coord. in units of alat)
               a(1) = (   1.000000   0.000000   0.000000 )
               a(2) = (   0.000000   1.154472   0.000000 )
               a(3) = (   0.000000   0.000000   1.355014 )

     reciprocal axes: (cart. coord. in units 2 pi/alat)
               b(1) = (  1.000000  0.000000  0.000000 )
               b(2) = (  0.000000  0.866197  0.000000 )
               b(3) = (  0.000000  0.000000  0.738000 )

     PseudoPot. # 1 for Zn read from file:
     /home/sacss11/scratch/sacss11/hmah/jobs/g_znpc/pp/Zn.pbe-d-hgh.UPF
     MD5 check sum: 840b59d6b5d6b778dd7efd2cc31f93c9
     Pseudo is Norm-conserving, Zval = 12.0
     Generated in analytical, separable form
     Using radial grid of 1201 points,  6 beta functions with:
                l(1) =   0
                l(2) =   0
                l(3) =   0
                l(4) =   1
                l(5) =   1
                l(6) =   2

     PseudoPot. # 2 for  N read from file:
     /home/sacss11/scratch/sacss11/hmah/jobs/g_znpc/pp/N.pbe-hgh.UPF
     MD5 check sum: 1504e9c56d21d37eacabc67df972de26
     Pseudo is Norm-conserving, Zval =  5.0
     Generated in analytical, separable form
     Using radial grid of 1085 points,  1 beta functions with:
                l(1) =   0

     PseudoPot. # 3 for  C read from file:
     /home/sacss11/scratch/sacss11/hmah/jobs/g_znpc/pp/C.pbe-hgh.UPF
     MD5 check sum: ca26ff84b356733038fc2f5c468d1892
     Pseudo is Norm-conserving, Zval =  4.0
     Generated in analytical, separable form
     Using radial grid of 1073 points,  1 beta functions with:
                l(1) =   0

     PseudoPot. # 4 for  H read from file:
     /home/sacss11/scratch/sacss11/hmah/jobs/g_znpc/pp/H.pbe-hgh.UPF
     MD5 check sum: 50ae4f52d34cf16cdfed4bce9c5a191e
     Pseudo is Norm-conserving, Zval =  1.0
     Generated in analytical, separable form
     Using radial grid of  929 points,  0 beta functions with:

     atomic species   valence    mass     pseudopotential
        Zn            12.00    65.39000     Zn( 1.00)
        N              5.00    14.00674      N( 1.00)
        C              4.00    12.01070      C( 1.00)
        H              1.00     1.00794      H( 1.00)

     Simplified LDA+U calculation (l_max = 2) with parameters (eV):
     atomic species    L          U    alpha       J0     beta
        Zn             2     7.0000   0.0000   0.0000   0.0000
        N              1     5.5000   0.0000   0.0000   0.0000
        C              1     5.5000   0.0000   0.0000   0.0000

     No symmetry found

   Cartesian axes

     site n.     atom                  positions (alat units)
         1           C   tau(   1) = (   0.0005331  -0.0007680   0.1364003  )
         2           C   tau(   2) = (   0.0005436   0.0954696   0.1360866  )
         3           C   tau(   3) = (   0.1672339  -0.0007321   0.1361813  )
         4           C   tau(   4) = (   0.1672873   0.0954781   0.1356568  )
         5           C   tau(   5) = (   0.0839428   0.1435446   0.1357904  )
         6           C   tau(   6) = (   0.0839298   0.2397561   0.1352565  )
         7           C   tau(   7) = (   0.0005255   0.2878242   0.1350901  )
         8           C   tau(   8) = (   0.0005193   0.3840567   0.1348964  )
         9           C   tau(   9) = (   0.3338789  -0.0007065   0.1357297  )
        10           C   tau(  10) = (   0.3339076   0.0954758   0.1348015  )
        11           C   tau(  11) = (   0.2506178   0.1435506   0.1347453  )
        12           C   tau(  12) = (   0.2506076   0.2397326   0.1341436  )
        13           C   tau(  13) = (   0.1672827   0.2878289   0.1345674  )
        14           C   tau(  14) = (   0.1672493   0.3840391   0.1343189  )
        15           C   tau(  15) = (   0.0838999   0.4321317   0.1347100  )
        16           C   tau(  16) = (   0.0838939   0.5283346   0.1346159  )
        17           C   tau(  17) = (   0.0005101   0.5764320   0.1348991  )
        18           C   tau(  18) = (   0.0005077   0.6726500   0.1350798  )
        19           C   tau(  19) = (   0.5005339  -0.0007450   0.1358908  )
        20           C   tau(  20) = (   0.5005399   0.0954867   0.1350756  )
        21           C   tau(  21) = (   0.4172400   0.1435550   0.1343518  )
        22           C   tau(  22) = (   0.4172540   0.2397408   0.1335666  )
        23           C   tau(  23) = (   0.3338974   0.2878312   0.1334624  )
        24           C   tau(  24) = (   0.3338470   0.3840373   0.1331259  )
        25           C   tau(  25) = (   0.2505451   0.4321320   0.1336034  )
        26           C   tau(  26) = (   0.2505082   0.5283335   0.1335608  )
        27           C   tau(  27) = (   0.1671990   0.5764585   0.1340873  )
        28           C   tau(  28) = (   0.1671839   0.6726350   0.1343091  )
        29           C   tau(  29) = (   0.0838679   0.7207112   0.1349413  )
        30           C   tau(  30) = (   0.0838577   0.8169009   0.1355401  )
        31           C   tau(  31) = (   0.0004917   0.8649999   0.1360772  )
        32           C   tau(  32) = (   0.0005023   0.9612502   0.1364052  )
        33           C   tau(  33) = (   0.6671939  -0.0007528   0.1360137  )
        34           C   tau(  34) = (   0.6672206   0.0954699   0.1353345  )
        35           C   tau(  35) = (   0.5838930   0.1435778   0.1348154  )
        36           C   tau(  36) = (   0.5839045   0.2397493   0.1338422  )
        37           C   tau(  37) = (   0.5005594   0.2878189   0.1332753  )
        38           C   tau(  38) = (   0.5005408   0.3840386   0.1327039  )
        39           C   tau(  39) = (   0.4171912   0.4321336   0.1326660  )
        40           C   tau(  40) = (   0.4171577   0.5283411   0.1327197  )
        41           C   tau(  41) = (   0.3338005   0.5764616   0.1332221  )
        42           C   tau(  42) = (   0.3337951   0.6726402   0.1337623  )
        43           C   tau(  43) = (   0.2504849   0.7207113   0.1342760  )
        44           C   tau(  44) = (   0.2504969   0.8169133   0.1349804  )
        45           C   tau(  45) = (   0.1671898   0.8650031   0.1355600  )
        46           C   tau(  46) = (   0.1671899   0.9612418   0.1361323  )
        47           C   tau(  47) = (   0.0838683   1.0093578   0.1363979  )
        48           C   tau(  48) = (   0.0838947   1.1055897   0.1364320  )
        49           C   tau(  49) = (   0.8338446  -0.0007632   0.1361505  )
        50           C   tau(  50) = (   0.8338412   0.0954670   0.1355961  )
        51           C   tau(  51) = (   0.7505560   0.1435584   0.1349639  )
        52           C   tau(  52) = (   0.7505614   0.2397616   0.1341895  )
        53           C   tau(  53) = (   0.6672259   0.2878401   0.1336197  )
        54           C   tau(  54) = (   0.6672187   0.3840347   0.1331038  )
        55           C   tau(  55) = (   0.5838907   0.4321204   0.1326537  )
        56           C   tau(  56) = (   0.5838613   0.5283251   0.1326729  )
        57           C   tau(  57) = (   0.5004830   0.5764550   0.1327792  )
        58           C   tau(  58) = (   0.5004658   0.6726581   0.1334000  )
        59           C   tau(  59) = (   0.4171471   0.7207195   0.1339786  )
        60           C   tau(  60) = (   0.4171639   0.8168878   0.1349058  )
[...]
       139           H   tau( 139) = (   0.4263714   0.0965917   0.3723921  )
       140           H   tau( 140) = (   0.6914855   0.1395635   0.3710825  )
       141           H   tau( 141) = (   0.8855922   0.4124219   0.3713639  )
       142           H   tau( 142) = (   0.8437165   0.6757371   0.3740265  )
       143           H   tau( 143) = (   0.5724431   0.8715189   0.3725519  )
       144           H   tau( 144) = (   0.3066714   0.8287634   0.3709758  )
       145           H   tau( 145) = (   0.1124256   0.5562530   0.3713899  )
       146           H   tau( 146) = (   0.1398800   0.1251394   0.3744396  )
       147           H   tau( 147) = (   0.2737052   0.0292925   0.3732319  )
       148           H   tau( 148) = (   0.8576395   0.1255595   0.3703069  )
       149           H   tau( 149) = (   0.9532984   0.2597728   0.3706243  )
       150           H   tau( 150) = (   0.8588889   0.8422603   0.3745179  )
       151           H   tau( 151) = (   0.7253733   0.9384606   0.3734876  )
       152           H   tau( 152) = (   0.1403828   0.8428916   0.3699888  )
       153           H   tau( 153) = (   0.0447516   0.7086824   0.3704558  )

     number of k points=     5
                       cart. coord. in units 2pi/alat
        k(    1) = (   0.1666667   0.1443662  -0.3690000), wk =   0.4444444
        k(    2) = (   0.1666667  -0.4330986  -0.3690000), wk =   0.4444444
        k(    3) = (  -0.5000000   0.1443662  -0.3690000), wk =   0.4444444
        k(    4) = (  -0.5000000  -0.4330986  -0.3690000), wk =   0.2222222
        k(    5) = (  -0.1666667   0.1443662   0.3690000), wk =   0.4444444

     Occupations read from input

        2.0000   2.0000   2.0000   2.0000   2.0000   2.0000   2.0000   2.0000
        2.0000   2.0000   2.0000   2.0000   2.0000   2.0000   2.0000   2.0000
        2.0000   2.0000   2.0000   2.0000   2.0000   2.0000   2.0000   2.0000
        2.0000   2.0000   2.0000   2.0000   2.0000   2.0000   2.0000   2.0000
        2.0000   2.0000   2.0000   2.0000   2.0000   2.0000   2.0000   2.0000
        2.0000   2.0000   2.0000   2.0000   2.0000   2.0000   2.0000   2.0000
        2.0000   2.0000   2.0000   2.0000   2.0000   2.0000   2.0000   2.0000
        2.0000   2.0000   2.0000   2.0000   2.0000   2.0000   2.0000   2.0000
        2.0000   2.0000   2.0000   2.0000   2.0000   2.0000   2.0000   2.0000
        2.0000   2.0000   2.0000   2.0000   2.0000   2.0000   2.0000   2.0000
        2.0000   2.0000   2.0000   2.0000   2.0000   2.0000   2.0000   2.0000
        2.0000   2.0000   2.0000   2.0000   2.0000   2.0000   2.0000   2.0000
        2.0000   2.0000   2.0000   2.0000   2.0000   2.0000   2.0000   2.0000
[...]
 -0.002 -0.012  0.902
atom  127   Tr[ns(na)] =   5.00658
    eigenvalues:
  0.720  0.876  0.908
    eigenvectors:
  1.000  0.000  0.000
  0.000  0.988  0.012
  0.000  0.012  0.988
    occupations:
  0.720 -0.000  0.001
 -0.000  0.876  0.004
  0.001  0.004  0.908
atom  128   Tr[ns(na)] =   5.00899
    eigenvalues:
  0.721  0.876  0.908
    eigenvectors:
  1.000  0.000  0.000
  0.000  0.172  0.828
  0.000  0.828  0.172
    occupations:
  0.721 -0.000  0.000
 -0.000  0.902  0.012
  0.000  0.012  0.881
atom  129   Tr[ns(na)] =   9.45586
    eigenvalues:
  0.930  0.945  0.945  0.948  0.959
    eigenvectors:
  1.000  0.000  0.000  0.000  0.000
  0.000  0.257  0.743  0.000  0.000
  0.000  0.743  0.257  0.000  0.000
  0.000  0.000  0.000  0.897  0.103
  0.000  0.000  0.000  0.103  0.896
    occupations:
  0.931  0.000 -0.000 -0.000  0.000
  0.000  0.945 -0.000 -0.000  0.000
 -0.000 -0.000  0.945  0.000  0.000
 -0.000 -0.000  0.000  0.949 -0.003
  0.000  0.000  0.000 -0.003  0.958
atom  130   Tr[ns(na)] =   5.28223
    eigenvalues:
  0.842  0.870  0.929
    eigenvectors:
  1.000  0.000  0.000
  0.000  0.340  0.660
  0.000  0.660  0.340
    occupations:
  0.842 -0.000  0.000
 -0.000  0.909 -0.028
  0.000 -0.028  0.890
atom  131   Tr[ns(na)] =   5.20170
    eigenvalues:
  0.775  0.881  0.944
    eigenvectors:
  1.000  0.000  0.000
  0.000  0.975  0.025
  0.000  0.025  0.975
    occupations:
  0.775 -0.000  0.000
 -0.000  0.883 -0.010
  0.000 -0.010  0.943
atom  132   Tr[ns(na)] =   5.20148
    eigenvalues:
  0.775  0.881  0.944
    eigenvectors:
  1.000  0.000  0.000
  0.000  0.027  0.973
  0.000  0.973  0.027
    occupations:
  0.775  0.000  0.000
  0.000  0.943  0.010
  0.000  0.010  0.883
atom  133   Tr[ns(na)] =   5.27605
    eigenvalues:
  0.840  0.869  0.929
    eigenvectors:
  1.000  0.000  0.000
  0.000  0.652  0.348
  0.000  0.348  0.652
    occupations:
  0.840 -0.000 -0.000
 -0.000  0.890  0.028
 -0.000  0.028  0.908
atom  134   Tr[ns(na)] =   5.19981
    eigenvalues:
  0.775  0.881  0.944
    eigenvectors:
  1.000  0.000  0.000
  0.000  0.027  0.973
  0.000  0.973  0.027
    occupations:
  0.775 -0.000 -0.000
 -0.000  0.942  0.010
 -0.000  0.010  0.883
atom  135   Tr[ns(na)] =   5.27364
    eigenvalues:
  0.839  0.869  0.929
    eigenvectors:
  1.000  0.000  0.000
  0.000  0.668  0.332
  0.000  0.332  0.668
    occupations:
  0.839  0.000  0.000
  0.000  0.889  0.028
  0.000  0.028  0.909
atom  136   Tr[ns(na)] =   5.20154
    eigenvalues:
  0.775  0.881  0.944
    eigenvectors:
  1.000  0.000  0.000
  0.000  0.974  0.026
  0.000  0.026  0.974
    occupations:
  0.775  0.000 -0.000
  0.000  0.883 -0.010
 -0.000 -0.010  0.943
atom  137   Tr[ns(na)] =   5.26413
    eigenvalues:
  0.835  0.868  0.929
    eigenvectors:
  1.000  0.000  0.000
  0.000  0.341  0.659
  0.000  0.659  0.341
    occupations:
  0.835  0.000 -0.000
  0.000  0.908 -0.029
 -0.000 -0.029  0.889
N of occupied +U levels =  688.872122
 --- exit write_ns ---

[...]

          k = 0.1667-0.4331-0.3690 (266460 PWs)   bands (ev):

[...]

          k =-0.1667 0.1444 0.3690 (266428 PWs)   bands (ev):

   -25.0863 -25.0664 -25.0515 -25.0269 -23.9116 -23.3388 -23.3331 -23.1036
   -23.0857 -23.0644 -23.0418 -23.0169 -22.9813 -22.9303 -22.9280 -22.9116
   -22.8193 -22.7987 -22.7694 -22.7308 -22.6700 -22.6246 -22.5725 -22.5537
   -22.4480 -22.2708 -22.2401 -22.1496 -22.1034 -22.0886 -21.8098 -21.7319
   -21.6644 -21.6499 -21.6073 -21.4756 -21.4543 -21.3592 -21.3149 -21.3053
   -20.9344 -20.9244 -20.8859 -20.7061 -20.4745 -20.4688 -20.1798 -19.8282
   -19.7727 -19.6445 -19.5827 -19.5264 -19.4797 -19.4649 -19.4302 -19.2933
   -19.1751 -19.1048 -18.7639 -18.7503 -18.6172 -18.5995 -18.5873 -18.5717
   -18.4273 -18.3050 -17.6156 -17.5405 -17.4899 -17.3123 -17.3017 -17.2940
   -17.2495 -17.2464 -17.1548 -17.1364 -17.0716 -16.7265 -16.5515 -16.5064
   -16.4414 -16.2439 -16.2333 -16.1866 -16.0279 -15.7971 -15.7630 -15.7554
   -15.6857 -15.6069 -15.5430 -15.5146 -15.4906 -15.4852 -15.3987 -15.1905
   -15.1712 -15.0857 -15.0783 -15.0595 -14.9825 -14.9456 -14.7697 -14.5854
   -14.3397 -14.1681 -14.1086 -14.0776 -13.9883 -13.9252 -13.8553 -13.8497
   -13.8085 -13.7601 -13.6851 -13.6639 -13.5058 -13.4414 -13.2723 -13.2203
   -13.2142 -13.1863 -12.9719 -12.8523 -12.8338 -12.7427 -12.7067 -12.6051
   -12.5988 -12.4330 -12.4268 -12.2144 -12.1819 -12.1409 -12.1299 -12.0934
   -12.0820 -12.0541 -12.0182 -11.9626 -11.7779 -11.7552 -11.7063 -11.6661
   -11.6554 -11.6421 -11.5147 -11.5075 -11.4566 -11.4527 -11.4282 -11.4208
   -11.3946 -11.3906 -11.3718 -11.1489 -11.1324 -11.1131 -11.0255 -10.9863
   -10.8976 -10.8634 -10.8516 -10.8223 -10.7996 -10.7061 -10.6970 -10.6398
   -10.6243 -10.4358 -10.4143 -10.3833 -10.3728 -10.3244 -10.2458 -10.2420
   -10.1700 -10.1517 -10.1040 -10.0983 -10.0681 -10.0670 -10.0458 -10.0414
   -10.0299 -10.0249 -10.0026  -9.9534  -9.9201  -9.9045  -9.8764  -9.8212
    -9.7341  -9.6879  -9.6868  -9.6161  -9.5463  -9.5217  -9.5186  -9.4187
    -9.2990  -9.2054  -9.1973  -9.1652  -9.1259  -9.1042  -9.0134  -8.9251
    -8.9141  -8.8364  -8.7617  -8.6373  -8.5948  -8.5486  -8.4905  -8.4150
    -8.4072  -8.3524  -8.2731  -8.2347  -8.0787  -8.0536  -7.9934  -7.9714
    -7.9340  -7.8954  -7.8591  -7.8276  -7.8008  -7.7981  -7.7561  -7.7417
    -7.7169  -7.6224  -7.5972  -7.5762  -7.5226  -7.4058  -7.3611  -7.3560
    -7.3359  -7.2826  -7.2244  -7.0991  -7.0942  -7.0860  -7.0656  -7.0507
    -6.9985  -6.9596  -6.8838  -6.8339  -6.7725  -6.4477  -6.4236  -6.3981
    -6.3603  -6.3144  -6.2421  -6.1949  -6.0381  -5.9965  -5.9717  -5.6903
    -5.6033  -5.5184  -5.5122  -5.4995  -5.4864  -5.4775  -5.4426  -5.3839
    -5.3323  -5.3022  -5.2328  -5.2214  -5.1756  -5.1528  -5.0795  -5.0452
    -4.9888  -4.9344  -4.9142  -4.7981  -4.5080  -4.4262  -3.4594  -3.2500
    -3.2205  -2.6839  -2.1374  -2.1061  -1.7820  -1.7787  -1.1079  -1.0929
    -0.8508  -0.7601  -0.6944  -0.6827  -0.6136  -0.5680  -0.5623  -0.4953
    -0.2454  -0.1786   0.0371   0.1232   0.1709   0.1959   0.3371   0.3747
     0.4416   0.5033   0.6039   0.7093   0.9133   0.9914   1.1837   1.3987

     highest occupied, lowest unoccupied level (ev):    -2.6817   -2.1406

!    total energy              =   -1712.96717237 Ry
     Harris-Foulkes estimate   =   -1712.96717236 Ry
     estimated scf accuracy    <          4.4E-09 Ry

     The total energy is the sum of the following terms:

     one-electron contribution =  -16983.05785608 Ry
     hartree contribution      =    8599.22208186 Ry
     xc contribution           =    -516.08219223 Ry
     ewald contribution        =    7164.60668880 Ry
     Hubbard energy            =      22.34410528 Ry

     convergence has been achieved in   6 iterations

     Forces acting on atoms (Ry/au):

     atom    1 type  3   force =     0.00003387    0.00006505    0.00009492
     atom    2 type  3   force =     0.00004761    0.00001784    0.00001612
     atom    3 type  3   force =     0.00002428    0.00006242    0.00005437
     atom    4 type  3   force =     0.00004567    0.00002901    0.00005349
     atom    5 type  3   force =    -0.00000181   -0.00014677    0.00005597
     atom    6 type  3   force =     0.00001361    0.00017298    0.00006948
     atom    7 type  3   force =     0.00004121   -0.00020800    0.00003061
     atom    8 type  3   force =     0.00004972    0.00014513   -0.00003607
     atom    9 type  3   force =     0.00002772    0.00007506   -0.00004273
     atom   10 type  3   force =     0.00004864    0.00001687   -0.00005684
     atom   11 type  3   force =    -0.00000347   -0.00014055    0.00000424
     atom   12 type  3   force =     0.00001351    0.00017449   -0.00001419
     atom   13 type  3   force =     0.00003824   -0.00020208    0.00003129
     atom   14 type  3   force =     0.00004565    0.00014466   -0.00004346
     atom   15 type  3   force =    -0.00001052   -0.00007049   -0.00008723
     atom   16 type  3   force =    -0.00001040   -0.00009045   -0.00011095
     atom   17 type  3   force =     0.00000314    0.00004692   -0.00004851
     atom   18 type  3   force =     0.00001501    0.00002091    0.00002085
     atom   19 type  3   force =     0.00002169    0.00008379    0.00003726
     atom   20 type  3   force =     0.00004377    0.00000199    0.00003086
     atom   21 type  3   force =     0.00001453   -0.00013774   -0.00005295
     atom   22 type  3   force =     0.00000130    0.00016542   -0.00009368
     atom   23 type  3   force =     0.00004992   -0.00019261   -0.00009483
     atom   24 type  3   force =     0.00003837    0.00013310   -0.00007139
     atom   25 type  3   force =    -0.00000061   -0.00006484   -0.00006726
     atom   26 type  3   force =    -0.00001872   -0.00010096   -0.00006496
     atom   27 type  3   force =     0.00002006    0.00006067   -0.00009340
     atom   28 type  3   force =    -0.00000792    0.00001276   -0.00007497
     atom   29 type  3   force =    -0.00002312   -0.00013972   -0.00004043
     atom   30 type  3   force =    -0.00003970    0.00015776   -0.00001665
     atom   31 type  3   force =     0.00001083   -0.00018586    0.00003934
     atom   32 type  3   force =     0.00000152    0.00012466    0.00011266
     atom   33 type  3   force =     0.00003249    0.00009024    0.00002782
     atom   34 type  3   force =     0.00003727   -0.00000366    0.00006677
     atom   35 type  3   force =     0.00001429   -0.00013343    0.00006179
     atom   36 type  3   force =    -0.00000965    0.00015967    0.00000400
     atom   37 type  3   force =     0.00006236   -0.00018442   -0.00005595
     atom   38 type  3   force =     0.00002754    0.00012686   -0.00001825
     atom   39 type  3   force =     0.00001894   -0.00004644   -0.00003428
     atom   40 type  3   force =    -0.00001770   -0.00011369   -0.00001728
     atom   41 type  3   force =     0.00003707    0.00006267   -0.00001671
     atom   42 type  3   force =    -0.00000750    0.00000471    0.00003402
     atom   43 type  3   force =    -0.00000221   -0.00013487   -0.00001595
     atom   44 type  3   force =    -0.00004853    0.00015159   -0.00000102
     atom   45 type  3   force =     0.00001276   -0.00017691   -0.00001909
     atom   46 type  3   force =     0.00000729    0.00012022    0.00002314
     atom   47 type  3   force =    -0.00001696   -0.00004171    0.00011212
     atom   48 type  3   force =    -0.00001285   -0.00010283    0.00012413
     atom   49 type  3   force =     0.00003269    0.00008267    0.00000030
     atom   50 type  3   force =     0.00005091    0.00000144   -0.00003297
     atom   51 type  3   force =     0.00001772   -0.00013387    0.00002027
     atom   52 type  3   force =    -0.00000059    0.00015498   -0.00000301
     atom   53 type  3   force =     0.00005941   -0.00018820   -0.00000525
     atom   54 type  3   force =     0.00003753    0.00013009   -0.00002774
     atom   55 type  3   force =    -0.00000076   -0.00004458    0.00000357
     atom   56 type  3   force =    -0.00001294   -0.00010594   -0.00003161
     atom   57 type  3   force =     0.00002718    0.00006442   -0.00003425
     atom   58 type  3   force =     0.00000857    0.00001672   -0.00004496
     atom   59 type  3   force =    -0.00000672   -0.00014512    0.00004331
     atom   60 type  3   force =    -0.00003241    0.00015696    0.00005450
[...]
     atom  139 type  4   force =    -0.00020958    0.00019054    0.00001679
     atom  140 type  4   force =     0.00042506    0.00050808    0.00032887
     atom  141 type  4   force =     0.00011101   -0.00028659    0.00036628
     atom  142 type  4   force =     0.00002804    0.00025162    0.00003340
     atom  143 type  4   force =     0.00003184    0.00029594   -0.00000781
     atom  144 type  4   force =     0.00024701    0.00072749    0.00028911
     atom  145 type  4   force =    -0.00056978    0.00040442    0.00026557
     atom  146 type  4   force =    -0.00003203    0.00002085   -0.00001400
     atom  147 type  4   force =     0.00027146   -0.00035439    0.00006681
     atom  148 type  4   force =     0.00022311   -0.00032116    0.00005091
     atom  149 type  4   force =     0.00012140    0.00004044   -0.00003850
     atom  150 type  4   force =    -0.00016063   -0.00013373   -0.00005124
     atom  151 type  4   force =    -0.00028028    0.00010237    0.00007360
     atom  152 type  4   force =     0.00043183    0.00006670    0.00014358
     atom  153 type  4   force =    -0.00021498   -0.00014387    0.00002440

     Total force =     0.003541     Total SCF correction =     0.000415
     SCF correction compared to forces is large: reduce conv_thr to get better values

     bfgs converged in  31 scf cycles and  30 bfgs steps
     (criteria: energy <  1.0E-04, force <  1.0E-03)

     End of BFGS Geometry Optimization

     Final energy   =   -1712.9671723740 Ry
Begin final coordinates

ATOMIC_POSITIONS (angstrom)
C        0.001444956  -0.017850626   1.977939471
C        0.001378213   1.402137949   1.978326391
C        2.461889377  -0.017447312   1.977446698
C        2.462400394   1.402239821   1.976021329
C        1.232016138   2.112393917   1.978246573
C        1.231837261   3.531863194   1.978660047
C        0.001131187   4.241974933   1.979055564
C        0.001201970   5.661662942   1.980473714
C        4.921629409  -0.017094585   1.975953608
C        4.921799848   1.402255135   1.971885390
C        3.692170781   2.112485728   1.972341245
C        3.692048535   3.531534798   1.972860493
C        2.462329398   4.241980283   1.976638186
C        2.462074968   5.661381575   1.977796898
C        1.231767276   6.371886662   1.980179488
C        1.231919390   7.791478895   1.979457897
C        0.001497875   8.501603658   1.980442622
C        0.001640833   9.921399985   1.978738711
C        7.381462706  -0.017618874   1.977409133
C        7.381351748   1.402377549   1.975065146
C        6.151583824   2.112552277   1.971737747
C        6.151786500   3.531701403   1.970962227
C        4.921714285   4.241993579   1.971861934
C        4.921307040   5.661336757   1.972944860
C        3.691561978   6.371829345   1.974866214
C        3.691340660   7.791361652   1.974298287
C        2.461853204   8.501853312   1.975712370
C        2.461795340   9.921104339   1.974409166
C        1.231903046  10.631418998   1.975947259
C        1.231761289  12.050606587   1.976122814
C        0.001461972  12.761164458   1.977636132
C        0.001409134  14.181077702   1.977576597
C        9.841385635  -0.017655750   1.977634965
C        9.841536397   1.402211807   1.975868776
C        8.611413180   2.112832767   1.975017482
C        8.611569652   3.531847000   1.972518687
C        7.381591645   4.241944147   1.971482873
C        7.381518230   5.661521513   1.972002589
C        6.151357435   6.371896627   1.972056741
C        6.151161871   7.791430717   1.971453888
C        4.921056483   8.501781527   1.972329396
C        4.921107366   9.921122859   1.972482417
C        3.691276090  10.631335900   1.973247401
C        3.691419005  12.050682179   1.973848939
C        2.461864051  12.761116777   1.975349771
C        2.461690440  14.180908942   1.977040243
C        1.231614644  14.891797062   1.977433426
C        1.231726179  16.311746900   1.977710276
C       12.301168063  -0.017728821   1.977835326
C       12.300934252   1.402212781   1.976614345
C       11.071353649   2.112700299   1.974567508
C       11.071413220   3.532047179   1.973271895
C        9.841549477   4.242203700   1.972292119
C        9.841549479   5.661434715   1.972270379
C        8.611492265   6.371815816   1.971899160
C        8.611418705   7.791324731   1.972061524
C        7.381199612   8.501682767   1.971641795
C        7.381157061   9.921336648   1.971728372
C        6.151205549  10.631420005   1.972659727
C        6.151419180  12.050408819   1.975261860
[...]
H        6.323723103   1.428061709   5.513826596
H       10.217965166   2.065233822   5.481397173
H       13.108367121   6.092223189   5.497734627
H       12.464000584   9.986156986   5.534070472
H        8.441984906  12.876715880   5.517892182
H        4.544359537  12.246062908   5.481346959
H        1.640309496   8.233988863   5.496879289
H        2.081765222   1.840101268   5.529496280
H        4.060300751   0.426868047   5.514987991
H       12.680360785   1.850115588   5.469210217
H       14.100767794   3.824973224   5.481256288
H       12.683439140  12.454471834   5.530432063
H       10.707145868  13.871193474   5.519668630
H        2.079710646  12.475141881   5.457710870
H        0.654811786  10.503027310   5.469628526
End final coordinates

     Writing output data file x0.relax.slg.v.3k.save

     General routines

     Parallel routines

     Hubbard U routines

   This run was terminated on:  16:12:11   6Sep2019

   JOB DONE.