     Program PWSCF v.5.2.0 starts on  8Sep2019 at  8: 9: 5

     Current dimensions of program PWSCF are:
     Max number of different atomic species (ntypx) = 10
     Max number of k-points (npk) =  40000
     Max angular momentum in pseudopotentials (lmaxx) =  3

     bravais-lattice index     =            0
     lattice parameter (alat)  =      27.8924  a.u.
     unit-cell volume          =   33945.5266 (a.u.)^3
     number of atoms/cell      =          153
     number of atomic types    =            4
     number of electrons       =       580.00
     number of Kohn-Sham states=          320
     kinetic-energy cutoff     =      60.0000  Ry
     charge density cutoff     =     240.0000  Ry
     convergence threshold     =      1.0E-06
     mixing beta               =       0.7000
     number of iterations used =            8  local-TF  mixing
     Exchange-correlation      = SLA-PW-PBX-PBC ( 1  4  3  4 0 0)
     nstep                     =           50

     celldm(1)=  27.892358  celldm(2)=   0.000000  celldm(3)=   0.000000
     celldm(4)=   0.000000  celldm(5)=   0.000000  celldm(6)=   0.000000

     crystal axes: (cart. coord. in units of alat)
               a(1) = (   1.000000   0.000000   0.000000 )
               a(2) = (   0.000000   1.154472   0.000000 )
               a(3) = (   0.000000   0.000000   1.355014 )

     reciprocal axes: (cart. coord. in units 2 pi/alat)
               b(1) = (  1.000000  0.000000  0.000000 )
               b(2) = (  0.000000  0.866197  0.000000 )
               b(3) = (  0.000000  0.000000  0.738000 )

     PseudoPot. # 1 for Zn read from file:
     /home/sacss11/scratch/sacss11/hmah/jobs/g_znpc/pp/Zn.pbe-d-hgh.UPF
     MD5 check sum: 840b59d6b5d6b778dd7efd2cc31f93c9
     Pseudo is Norm-conserving, Zval = 12.0
     Generated in analytical, separable form
     Using radial grid of 1201 points,  6 beta functions with:
                l(1) =   0
                l(2) =   0
                l(3) =   0
                l(4) =   1
                l(5) =   1
                l(6) =   2

     PseudoPot. # 2 for  N read from file:
     /home/sacss11/scratch/sacss11/hmah/jobs/g_znpc/pp/N.pbe-hgh.UPF
     MD5 check sum: 1504e9c56d21d37eacabc67df972de26
     Pseudo is Norm-conserving, Zval =  5.0
     Generated in analytical, separable form
     Using radial grid of 1085 points,  1 beta functions with:
                l(1) =   0

     PseudoPot. # 3 for  C read from file:
     /home/sacss11/scratch/sacss11/hmah/jobs/g_znpc/pp/C.pbe-hgh.UPF
     MD5 check sum: ca26ff84b356733038fc2f5c468d1892
     Pseudo is Norm-conserving, Zval =  4.0
     Generated in analytical, separable form
     Using radial grid of 1073 points,  1 beta functions with:
                l(1) =   0

     PseudoPot. # 4 for  H read from file:
     /home/sacss11/scratch/sacss11/hmah/jobs/g_znpc/pp/H.pbe-hgh.UPF
     MD5 check sum: 50ae4f52d34cf16cdfed4bce9c5a191e
     Pseudo is Norm-conserving, Zval =  1.0
     Generated in analytical, separable form
     Using radial grid of  929 points,  0 beta functions with:

     atomic species   valence    mass     pseudopotential
        Zn            12.00    65.39000     Zn( 1.00)
        N              5.00    14.00674      N( 1.00)
        C              4.00    12.01070      C( 1.00)
        H              1.00     1.00794      H( 1.00)

     Simplified LDA+U calculation (l_max = 2) with parameters (eV):
     atomic species    L          U    alpha       J0     beta
        Zn             2     7.0000   0.0000   0.0000   0.0000
        N              1     5.5000   0.0000   0.0000   0.0000
        C              1     5.5000   0.0000   0.0000   0.0000

     No symmetry found

   Cartesian axes

     site n.     atom                  positions (alat units)
         1           C   tau(   1) = (  -0.0001325  -0.0013544   0.1345902  )
         2           C   tau(   2) = (  -0.0000123   0.0949041   0.1346767  )
         3           C   tau(   3) = (   0.1665684  -0.0012392   0.1346463  )
         4           C   tau(   4) = (   0.1667332   0.0948204   0.1345985  )
         5           C   tau(   5) = (   0.0832402   0.1430267   0.1347396  )
         6           C   tau(   6) = (   0.0833519   0.2391308   0.1347582  )
         7           C   tau(   7) = (  -0.0001528   0.2872326   0.1347494  )
         8           C   tau(   8) = (  -0.0000026   0.3835283   0.1348002  )
         9           C   tau(   9) = (   0.3332108  -0.0013302   0.1346843  )
        10           C   tau(  10) = (   0.3333771   0.0949215   0.1343251  )
        11           C   tau(  11) = (   0.2499807   0.1430257   0.1343429  )
        12           C   tau(  12) = (   0.2500864   0.2391195   0.1342623  )
        13           C   tau(  13) = (   0.1666296   0.2873227   0.1345454  )
        14           C   tau(  14) = (   0.1667610   0.3833943   0.1344868  )
        15           C   tau(  15) = (   0.0831922   0.4316379   0.1347275  )
        16           C   tau(  16) = (   0.0833199   0.5276985   0.1346371  )
        17           C   tau(  17) = (  -0.0001074   0.5758216   0.1347900  )
        18           C   tau(  18) = (   0.0000429   0.6721093   0.1347243  )
        19           C   tau(  19) = (   0.4999014  -0.0012577   0.1348615  )
        20           C   tau(  20) = (   0.5000530   0.0948313   0.1345142  )
        21           C   tau(  21) = (   0.4165108   0.1430343   0.1342031  )
        22           C   tau(  22) = (   0.4166334   0.2391298   0.1339078  )
        23           C   tau(  23) = (   0.3332681   0.2872346   0.1339848  )
        24           C   tau(  24) = (   0.3333703   0.3834669   0.1338688  )
        25           C   tau(  25) = (   0.2498895   0.4315849   0.1340687  )
        26           C   tau(  26) = (   0.2500070   0.5277224   0.1339742  )
        27           C   tau(  27) = (   0.1666215   0.5759454   0.1342383  )
        28           C   tau(  28) = (   0.1667472   0.6719676   0.1342122  )
        29           C   tau(  29) = (   0.0831877   0.7201897   0.1344942  )
        30           C   tau(  30) = (   0.0833141   0.8163129   0.1345175  )
        31           C   tau(  31) = (  -0.0001007   0.8644335   0.1346473  )
        32           C   tau(  32) = (   0.0000156   0.9606946   0.1345777  )
        33           C   tau(  33) = (   0.6665725  -0.0013352   0.1347385  )
        34           C   tau(  34) = (   0.6667096   0.0948965   0.1344788  )
        35           C   tau(  35) = (   0.5832316   0.1430134   0.1343513  )
        36           C   tau(  36) = (   0.5833833   0.2391604   0.1339095  )
        37           C   tau(  37) = (   0.4999330   0.2873561   0.1337595  )
        38           C   tau(  38) = (   0.5000353   0.3833444   0.1336476  )
        39           C   tau(  39) = (   0.4164755   0.4315699   0.1336577  )
        40           C   tau(  40) = (   0.4166052   0.5277583   0.1335956  )
        41           C   tau(  41) = (   0.3332155   0.5758761   0.1337321  )
        42           C   tau(  42) = (   0.3333300   0.6720471   0.1338778  )
        43           C   tau(  43) = (   0.2498940   0.7201472   0.1340879  )
        44           C   tau(  44) = (   0.2500562   0.8163436   0.1342622  )
        45           C   tau(  45) = (   0.1665911   0.8645394   0.1344355  )
        46           C   tau(  46) = (   0.1666943   0.9605852   0.1345578  )
        47           C   tau(  47) = (   0.0831876   1.0088285   0.1345465  )
        48           C   tau(  48) = (   0.0833385   1.1049893   0.1345821  )
        49           C   tau(  49) = (   0.8332135  -0.0012464   0.1345819  )
        50           C   tau(  50) = (   0.8333131   0.0947945   0.1344934  )
        51           C   tau(  51) = (   0.7498408   0.1430064   0.1342933  )
        52           C   tau(  52) = (   0.7499989   0.2391833   0.1340886  )
        53           C   tau(  53) = (   0.6665460   0.2872767   0.1338473  )
        54           C   tau(  54) = (   0.6666554   0.3834525   0.1337143  )
        55           C   tau(  55) = (   0.5832875   0.4315516   0.1336027  )
        56           C   tau(  56) = (   0.5834258   0.5277603   0.1336469  )
        57           C   tau(  57) = (   0.4998631   0.5759862   0.1336317  )
        58           C   tau(  58) = (   0.4999709   0.6719671   0.1337984  )
        59           C   tau(  59) = (   0.4165126   0.7201808   0.1339391  )
        60           C   tau(  60) = (   0.4166681   0.8163038   0.1343853  )
[...]
       139           H   tau( 139) = (   0.4281480   0.0972561   0.3743977  )
       140           H   tau( 140) = (   0.6894332   0.1418245   0.3705367  )
       141           H   tau( 141) = (   0.8856399   0.4140415   0.3714265  )
       142           H   tau( 142) = (   0.8451800   0.6775913   0.3760848  )
       143           H   tau( 143) = (   0.5719588   0.8728350   0.3746779  )
       144           H   tau( 144) = (   0.3086869   0.8286795   0.3704768  )
       145           H   tau( 145) = (   0.1158745   0.5537701   0.3708789  )
       146           H   tau( 146) = (   0.1408045   0.1262408   0.3793525  )
       147           H   tau( 147) = (   0.2747463   0.0300705   0.3782909  )
       148           H   tau( 148) = (   0.8559177   0.1267388   0.3732931  )
       149           H   tau( 149) = (   0.9527380   0.2604542   0.3737187  )
       150           H   tau( 150) = (   0.8592597   0.8446386   0.3794125  )
       151           H   tau( 151) = (   0.7250765   0.9404135   0.3786843  )
       152           H   tau( 152) = (   0.1418900   0.8415881   0.3726765  )
       153           H   tau( 153) = (   0.0468185   0.7066934   0.3728979  )

     number of k points=     5
                       cart. coord. in units 2pi/alat
        k(    1) = (   0.1666667   0.1443662  -0.3690000), wk =   0.4444444
        k(    2) = (   0.1666667  -0.4330986  -0.3690000), wk =   0.4444444
        k(    3) = (  -0.5000000   0.1443662  -0.3690000), wk =   0.4444444
        k(    4) = (  -0.5000000  -0.4330986  -0.3690000), wk =   0.2222222
        k(    5) = (  -0.1666667   0.1443662   0.3690000), wk =   0.4444444

     Occupations read from input

        2.0000   2.0000   2.0000   2.0000   2.0000   2.0000   2.0000   2.0000
        2.0000   2.0000   2.0000   2.0000   2.0000   2.0000   2.0000   2.0000
        2.0000   2.0000   2.0000   2.0000   2.0000   2.0000   2.0000   2.0000
        2.0000   2.0000   2.0000   2.0000   2.0000   2.0000   2.0000   2.0000
        2.0000   2.0000   2.0000   2.0000   2.0000   2.0000   2.0000   2.0000
        2.0000   2.0000   2.0000   2.0000   2.0000   2.0000   2.0000   2.0000
        2.0000   2.0000   2.0000   2.0000   2.0000   2.0000   2.0000   2.0000
        2.0000   2.0000   2.0000   2.0000   2.0000   2.0000   2.0000   2.0000
        2.0000   2.0000   2.0000   2.0000   2.0000   2.0000   2.0000   2.0000
        2.0000   2.0000   2.0000   2.0000   2.0000   2.0000   2.0000   2.0000
        2.0000   2.0000   2.0000   2.0000   2.0000   2.0000   2.0000   2.0000
        2.0000   2.0000   2.0000   2.0000   2.0000   2.0000   2.0000   2.0000
        2.0000   2.0000   2.0000   2.0000   2.0000   2.0000   2.0000   2.0000
[...]
  0.000  0.830  0.170
  0.000  0.170  0.829
    occupations:
  0.715  0.001 -0.004
  0.001  0.881 -0.012
 -0.004 -0.012  0.903
atom  127   Tr[ns(na)] =   4.99720
    eigenvalues:
  0.715  0.875  0.908
    eigenvectors:
  1.000  0.000  0.000
  0.000  0.990  0.010
  0.000  0.010  0.990
    occupations:
  0.715 -0.001  0.002
 -0.001  0.876  0.003
  0.002  0.003  0.908
atom  128   Tr[ns(na)] =   4.99967
    eigenvalues:
  0.716  0.876  0.908
    eigenvectors:
  1.000  0.000  0.000
  0.000  0.175  0.825
  0.000  0.825  0.175
    occupations:
  0.716 -0.001  0.001
 -0.001  0.902  0.012
  0.001  0.012  0.881
atom  129   Tr[ns(na)] =   9.37627
    eigenvalues:
  0.899  0.937  0.950  0.951  0.952
    eigenvectors:
  0.001  0.998  0.000  0.000  0.000
  0.000  0.000  0.516  0.484  0.000
  0.000  0.000  0.484  0.516  0.000
  0.100  0.000  0.000  0.000  0.900
  0.898  0.001  0.000  0.000  0.100
    occupations:
  0.937 -0.000 -0.000  0.001 -0.001
 -0.000  0.950  0.000 -0.000  0.000
 -0.000  0.000  0.950 -0.000  0.000
  0.001 -0.000 -0.000  0.946  0.016
 -0.001  0.000  0.000  0.016  0.904
atom  130   Tr[ns(na)] =   5.27996
    eigenvalues:
  0.855  0.871  0.914
    eigenvectors:
  1.000  0.000  0.000
  0.000  0.333  0.667
  0.000  0.667  0.333
    occupations:
  0.855 -0.001  0.001
 -0.001  0.900 -0.021
  0.001 -0.021  0.885
atom  131   Tr[ns(na)] =   5.19666
    eigenvalues:
  0.775  0.880  0.943
    eigenvectors:
  1.000  0.000  0.000
  0.000  0.973  0.027
  0.000  0.027  0.973
    occupations:
  0.775 -0.000 -0.000
 -0.000  0.882 -0.010
 -0.000 -0.010  0.942
atom  132   Tr[ns(na)] =   5.19680
    eigenvalues:
  0.775  0.880  0.943
    eigenvectors:
  1.000  0.000  0.000
  0.000  0.023  0.977
  0.000  0.977  0.023
    occupations:
  0.775  0.001  0.001
  0.001  0.942  0.009
  0.001  0.009  0.882
atom  133   Tr[ns(na)] =   5.28199
    eigenvalues:
  0.855  0.871  0.915
    eigenvectors:
  1.000  0.000  0.000
  0.000  0.663  0.337
  0.000  0.337  0.663
    occupations:
  0.855 -0.000 -0.000
 -0.000  0.886  0.020
 -0.000  0.020  0.900
atom  134   Tr[ns(na)] =   5.19762
    eigenvalues:
  0.775  0.881  0.943
    eigenvectors:
  1.000  0.000  0.000
  0.000  0.024  0.976
  0.000  0.976  0.024
    occupations:
  0.775 -0.001 -0.000
 -0.001  0.942  0.010
 -0.000  0.010  0.882
atom  135   Tr[ns(na)] =   5.26948
    eigenvalues:
  0.851  0.870  0.914
    eigenvectors:
  1.000  0.000  0.000
  0.000  0.656  0.344
  0.000  0.344  0.656
    occupations:
  0.851  0.000  0.000
  0.000  0.885  0.021
  0.000  0.021  0.899
atom  136   Tr[ns(na)] =   5.19888
    eigenvalues:
  0.775  0.881  0.944
    eigenvectors:
  1.000  0.000  0.000
  0.000  0.970  0.030
  0.000  0.030  0.970
    occupations:
  0.775  0.000  0.001
  0.000  0.883 -0.011
  0.001 -0.011  0.942
atom  137   Tr[ns(na)] =   5.28265
    eigenvalues:
  0.856  0.871  0.914
    eigenvectors:
  1.000  0.000  0.000
  0.000  0.346  0.654
  0.000  0.654  0.346
    occupations:
  0.856  0.000 -0.000
  0.000  0.899 -0.021
 -0.000 -0.021  0.886
N of occupied +U levels =  688.902584
 --- exit write_ns ---

[...]

          k = 0.1667-0.4331-0.3690 (266460 PWs)   bands (ev):

[...]

          k =-0.1667 0.1444 0.3690 (266428 PWs)   bands (ev):

   -25.5945 -25.5502 -25.5374 -25.4644 -24.4586 -23.7938 -23.7897 -23.1879
   -22.8814 -22.8619 -22.8381 -22.8098 -22.7893 -22.7682 -22.7199 -22.7144
   -22.7040 -22.6155 -22.5782 -22.5496 -22.4542 -22.4252 -22.3577 -22.3397
   -22.2474 -22.0703 -22.0552 -22.0351 -21.9591 -21.9508 -21.8945 -21.8689
   -21.8338 -21.7116 -21.4725 -21.4114 -21.2683 -21.2281 -21.1059 -21.0908
   -20.7154 -20.6972 -20.6720 -20.4822 -20.2607 -20.2451 -19.9592 -19.8597
   -19.6719 -19.5974 -19.5475 -19.4236 -19.3648 -19.2974 -19.2693 -19.2231
   -19.1911 -19.1690 -19.0721 -18.9109 -18.9019 -18.8701 -18.8271 -18.5775
   -18.3848 -18.3672 -17.7873 -17.5444 -17.5384 -17.3962 -17.2647 -17.0832
   -17.0756 -17.0721 -16.9276 -16.9203 -16.8478 -16.5943 -16.5009 -16.3840
   -16.3323 -16.2917 -16.2248 -16.1196 -16.0775 -16.0678 -16.0205 -15.9709
   -15.8495 -15.4682 -15.3763 -15.3733 -15.3667 -15.3097 -15.2743 -15.2553
   -15.2482 -15.1761 -14.9589 -14.9475 -14.8630 -14.8475 -14.7516 -14.7238
   -14.3592 -14.1260 -13.9739 -13.9532 -13.9448 -13.8592 -13.7661 -13.6877
   -13.6475 -13.6384 -13.6157 -13.5863 -13.5794 -13.5720 -13.5618 -13.5432
   -13.2307 -12.9744 -12.9027 -12.8384 -12.7457 -12.7185 -12.6258 -12.5795
   -12.5133 -12.5129 -12.3867 -12.3837 -12.1901 -12.1545 -12.0365 -11.9793
   -11.9316 -11.8972 -11.8900 -11.8511 -11.7923 -11.7853 -11.7787 -11.7335
   -11.7245 -11.6882 -11.5512 -11.4935 -11.4384 -11.4310 -11.4121 -11.3629
   -11.3419 -11.3123 -11.2246 -11.2165 -11.1806 -11.1626 -11.0170 -10.9699
   -10.9098 -10.8714 -10.6781 -10.6200 -10.6116 -10.5612 -10.5387 -10.5189
   -10.4892 -10.4650 -10.4273 -10.4160 -10.3710 -10.3394 -10.3163 -10.2665
   -10.2490 -10.2332 -10.2149 -10.1933 -10.1335 -10.0966 -10.0374  -9.9375
    -9.9283  -9.9066  -9.8608  -9.8571  -9.7981  -9.7956  -9.6752  -9.6703
    -9.6371  -9.6347  -9.6077  -9.5555  -9.5061  -9.4804  -9.4000  -9.3829
    -9.3395  -9.3128  -9.3007  -9.2799  -9.2066  -9.0580  -8.9647  -8.9599
    -8.9545  -8.9265  -8.9006  -8.7751  -8.7119  -8.6872  -8.6636  -8.5976
    -8.5708  -8.5127  -8.4431  -8.3998  -8.3167  -8.2387  -8.2071  -8.1829
    -8.1564  -8.0069  -7.9986  -7.9491  -7.9386  -7.8241  -7.8222  -7.8073
    -7.7234  -7.7091  -7.6716  -7.5874  -7.5798  -7.5347  -7.4655  -7.4070
    -7.3476  -7.3289  -7.3269  -7.2146  -7.1481  -7.1375  -7.0760  -6.9947
    -6.8574  -6.8430  -6.6710  -6.6392  -6.6368  -6.5650  -6.3383  -6.2802
    -6.2420  -6.1448  -6.1278  -6.0951  -6.0575  -6.0118  -5.9004  -5.8859
    -5.8503  -5.8143  -5.6399  -5.6006  -5.5807  -5.5471  -5.5407  -5.4927
    -5.4642  -5.3788  -5.3465  -5.3398  -5.1817  -5.1316  -5.0397  -5.0183
    -4.9689  -4.8645  -4.7577  -4.6127  -4.3124  -4.2431  -3.7179  -3.3897
    -3.0638  -3.0223  -2.1724  -2.1496  -1.9154  -1.8629  -0.9020  -0.8850
    -0.6580  -0.6003  -0.5336  -0.4802  -0.4586  -0.4030  -0.3600  -0.3550
    -0.3188  -0.2348  -0.0949   0.0416   0.1056   0.1243   0.3190   0.3823
     0.6451   0.7093   0.8183   0.9038   1.1058   1.1938   1.3439   1.4227

     highest occupied, lowest unoccupied level (ev):    -1.0285   -1.8857

!    total energy              =   -1712.83400984 Ry
     Harris-Foulkes estimate   =   -1712.83400984 Ry
     estimated scf accuracy    <          5.8E-09 Ry

     The total energy is the sum of the following terms:

     one-electron contribution =  -17004.01707818 Ry
     hartree contribution      =    8609.97050008 Ry
     xc contribution           =    -516.13725860 Ry
     ewald contribution        =    7174.99939394 Ry
     Hubbard energy            =      22.35043291 Ry

     convergence has been achieved in   7 iterations

     Forces acting on atoms (Ry/au):

     atom    1 type  3   force =     0.00010969    0.00001975    0.00011758
     atom    2 type  3   force =     0.00001238   -0.00007818    0.00010698
     atom    3 type  3   force =     0.00005119    0.00014961    0.00010078
     atom    4 type  3   force =    -0.00017406   -0.00018568    0.00016198
     atom    5 type  3   force =     0.00007136   -0.00006755    0.00006620
     atom    6 type  3   force =     0.00009698    0.00008949    0.00001926
     atom    7 type  3   force =     0.00006884   -0.00010438    0.00004371
     atom    8 type  3   force =     0.00006002    0.00006039    0.00006760
     atom    9 type  3   force =    -0.00010337    0.00015701   -0.00000991
     atom   10 type  3   force =    -0.00005774   -0.00009381   -0.00003436
     atom   11 type  3   force =     0.00019904    0.00003708    0.00010889
     atom   12 type  3   force =     0.00001013    0.00002031    0.00009156
     atom   13 type  3   force =    -0.00003411   -0.00005226   -0.00000509
     atom   14 type  3   force =    -0.00004365   -0.00001914   -0.00005672
     atom   15 type  3   force =     0.00002792   -0.00007795    0.00004641
     atom   16 type  3   force =     0.00017802    0.00013385    0.00009838
     atom   17 type  3   force =    -0.00002666   -0.00003907    0.00006001
     atom   18 type  3   force =    -0.00008114    0.00010405    0.00004086
     atom   19 type  3   force =    -0.00004564   -0.00001421   -0.00000272
     atom   20 type  3   force =     0.00007694    0.00006030   -0.00004518
     atom   21 type  3   force =    -0.00000974    0.00010207   -0.00004567
     atom   22 type  3   force =    -0.00016893   -0.00004094    0.00005991
     atom   23 type  3   force =     0.00008100   -0.00013447    0.00002356
     atom   24 type  3   force =     0.00002235    0.00012462    0.00004327
     atom   25 type  3   force =     0.00013798   -0.00005732    0.00000464
     atom   26 type  3   force =     0.00001941    0.00004960    0.00002070
     atom   27 type  3   force =    -0.00014616   -0.00015072    0.00003895
     atom   28 type  3   force =     0.00001344    0.00017517    0.00007501
     atom   29 type  3   force =     0.00007680   -0.00015180    0.00001731
     atom   30 type  3   force =     0.00004040    0.00026695    0.00006365
     atom   31 type  3   force =    -0.00001159   -0.00018614    0.00010605
     atom   32 type  3   force =    -0.00013657    0.00015557    0.00011561
     atom   33 type  3   force =     0.00004582    0.00004195    0.00007627
     atom   34 type  3   force =     0.00004935   -0.00006469    0.00007565
     atom   35 type  3   force =    -0.00007103   -0.00000716   -0.00002085
     atom   36 type  3   force =     0.00004963    0.00012965    0.00004869
     atom   37 type  3   force =     0.00013328   -0.00013372    0.00009595
     atom   38 type  3   force =    -0.00007960    0.00012966    0.00012979
     atom   39 type  3   force =    -0.00003134   -0.00009698    0.00006114
     atom   40 type  3   force =    -0.00006686    0.00002800    0.00000436
     atom   41 type  3   force =     0.00008078   -0.00010556    0.00004222
     atom   42 type  3   force =     0.00007297    0.00019910    0.00004776
     atom   43 type  3   force =     0.00002993   -0.00025781    0.00008307
     atom   44 type  3   force =     0.00001685    0.00027015    0.00013915
     atom   45 type  3   force =    -0.00006535   -0.00022944    0.00012370
     atom   46 type  3   force =    -0.00003324    0.00016791    0.00006606
     atom   47 type  3   force =     0.00009765   -0.00001157    0.00001459
     atom   48 type  3   force =    -0.00007914   -0.00008375    0.00003345
     atom   49 type  3   force =     0.00003190    0.00003105    0.00007927
     atom   50 type  3   force =     0.00004768   -0.00005889    0.00012578
     atom   51 type  3   force =    -0.00000313   -0.00010851    0.00014602
     atom   52 type  3   force =     0.00001967    0.00012813    0.00009365
     atom   53 type  3   force =    -0.00007506   -0.00017156    0.00005783
     atom   54 type  3   force =    -0.00009022    0.00009875    0.00006063
     atom   55 type  3   force =     0.00009642   -0.00006715    0.00003063
     atom   56 type  3   force =     0.00002786    0.00009734    0.00005310
     atom   57 type  3   force =     0.00011042   -0.00012056    0.00010789
     atom   58 type  3   force =    -0.00010830    0.00013063    0.00012226
     atom   59 type  3   force =    -0.00004031   -0.00023077    0.00006834
     atom   60 type  3   force =     0.00008920    0.00019398   -0.00003653
[...]
     atom  139 type  4   force =    -0.00008919   -0.00041135   -0.00017466
     atom  140 type  4   force =     0.00027445    0.00007728    0.00043259
     atom  141 type  4   force =    -0.00016645   -0.00036519    0.00020586
     atom  142 type  4   force =    -0.00033148    0.00003879   -0.00041073
     atom  143 type  4   force =    -0.00018433    0.00031050   -0.00037653
     atom  144 type  4   force =    -0.00008914    0.00013772    0.00027011
     atom  145 type  4   force =    -0.00015900    0.00042332    0.00036425
     atom  146 type  4   force =     0.00027490    0.00023805    0.00006578
     atom  147 type  4   force =    -0.00029344    0.00018486    0.00036137
     atom  148 type  4   force =     0.00021138   -0.00013678    0.00030456
     atom  149 type  4   force =    -0.00022442   -0.00010456   -0.00011678
     atom  150 type  4   force =     0.00039650    0.00011164    0.00000741
     atom  151 type  4   force =     0.00024870    0.00009925    0.00022065
     atom  152 type  4   force =    -0.00001910   -0.00006898   -0.00006787
     atom  153 type  4   force =    -0.00021923    0.00020234   -0.00021039

     Total force =     0.004806     Total SCF correction =     0.000159

     bfgs converged in  35 scf cycles and  33 bfgs steps
     (criteria: energy <  1.0E-04, force <  1.0E-03)

     End of BFGS Geometry Optimization

     Final energy   =   -1712.8340098417 Ry
Begin final coordinates

ATOMIC_POSITIONS (angstrom)
C       -0.004489717  -0.020720933   1.978384457
C       -0.002199947   1.400230994   1.978628187
C        2.455963339  -0.019435905   1.977562175
C        2.458991384   1.399289331   1.975953457
C        1.226105279   2.110365368   1.978626598
C        1.228150061   3.528893646   1.978979938
C       -0.004824187   4.238957661   1.978928523
C       -0.002148739   5.660003735   1.979115372
C        4.915865975  -0.020690113   1.976007184
C        4.918649787   1.400513301   1.971399427
C        3.687053658   2.110207337   1.971597430
C        3.689103257   3.528713344   1.971946707
C        2.456886736   4.240014439   1.976450311
C        2.459192531   5.658339607   1.976612874
C        1.225372562   6.370142713   1.978431645
C        1.227610153   7.788011945   1.977154265
C       -0.003927424   8.498270821   1.978956514
C       -0.001232521   9.919322706   1.978514173
C        7.376192213  -0.019685587   1.977490206
C        7.378761273   1.399004126   1.974844475
C        6.145260768   2.110196321   1.971034338
C        6.147593411   3.528787019   1.969584187
C        4.916453840   4.238814537   1.970528279
C        4.918397393   5.659018990   1.971951666
C        3.685699019   6.369374529   1.973280080
C        3.687985750   7.788489472   1.972352114
C        2.456850564   8.500072636   1.973255528
C        2.459071831   9.917413932   1.972495027
C        1.225306241  10.628898776   1.975640745
C        1.227664696  12.047827448   1.976388749
C       -0.003876906  12.758112315   1.978223514
C       -0.001629490  14.178942725   1.978253264
C        9.836172075  -0.020772860   1.977246393
C        9.838627458   1.400043311   1.975048803
C        8.606138242   2.109836697   1.974288625
C        8.608783954   3.529278026   1.971088490
C        7.376500592   4.240417412   1.970106184
C        7.378646943   5.657471310   1.971452004
C        6.144773435   6.369246401   1.971945827
C        6.147158028   7.788831662   1.971695688
C        4.915553274   8.499111005   1.971333650
C        4.917743628   9.918571198   1.970981237
C        3.685885793  10.628465816   1.971361225
C        3.688778244  12.048383983   1.972547814
C        2.456392817  12.759508401   1.975089152
C        2.458353042  14.177536330   1.977167408
C        1.225438245  14.889103928   1.978118148
C        1.228161087  16.309230471   1.978299668
C       12.295837936  -0.019354908   1.977727008
C       12.297757843   1.398815195   1.976138124
C       11.065253567   2.110042469   1.973245604
C       11.068075922   3.529628461   1.971473391
C        9.835990118   4.239517045   1.970487069
C        9.838144980   5.658927542   1.970895697
C        8.606798209   6.368956965   1.971366486
C        8.609311047   7.788938679   1.971756606
C        7.375379920   8.500582976   1.971611748
C        7.377602691   9.917689962   1.970926094
C        6.145207274  10.629075798   1.971627329
C        6.147883051  12.048026653   1.974740840
[...]
H        6.319945659   1.439346492   5.510214662
H       10.189047943   2.090602270   5.462095552
H       13.096058982   6.105344807   5.507578613
H       12.472367284  10.001454240   5.550998012
H        8.428785508  12.868234042   5.515679449
H        4.553341696  12.234447851   5.458652776
H        1.701409371   8.179265665   5.486236025
H        2.080790830   1.882926361   5.542231570
H        4.052081598   0.457521504   5.515723633
H       12.648859406   1.864425754   5.456460828
H       14.079868919   3.835858170   5.487633733
H       12.671815780  12.468415268   5.541653248
H       10.687154803  13.874905734   5.519303646
H        2.091180775  12.426550348   5.445196059
H        0.686354697  10.437209417   5.464260827
End final coordinates

     Writing output data file x0.relax.slg.l.3k.save

     General routines

     Parallel routines

     Hubbard U routines

   This run was terminated on:  16:28:54   8Sep2019

   JOB DONE.