     Program PWSCF v.5.2.0 starts on  8Sep2019 at 15:58:36

     Current dimensions of program PWSCF are:
     Max number of different atomic species (ntypx) = 10
     Max number of k-points (npk) =  40000
     Max angular momentum in pseudopotentials (lmaxx) =  3

     bravais-lattice index     =            0
     lattice parameter (alat)  =      27.8924  a.u.
     unit-cell volume          =   33945.5266 (a.u.)^3
     number of atoms/cell      =          153
     number of atomic types    =            4
     number of electrons       =       580.00
     number of Kohn-Sham states=          320
     kinetic-energy cutoff     =      60.0000  Ry
     charge density cutoff     =     240.0000  Ry
     convergence threshold     =      1.0E-06
     mixing beta               =       0.7000
     number of iterations used =            8  local-TF  mixing
     Exchange-correlation      = SLA-PW-PBX-PBC ( 1  4  3  4 0 0)

     celldm(1)=  27.892358  celldm(2)=   0.000000  celldm(3)=   0.000000
     celldm(4)=   0.000000  celldm(5)=   0.000000  celldm(6)=   0.000000

     crystal axes: (cart. coord. in units of alat)
               a(1) = (   1.000000   0.000000   0.000000 )
               a(2) = (   0.000000   1.154472   0.000000 )
               a(3) = (   0.000000   0.000000   1.355014 )

     reciprocal axes: (cart. coord. in units 2 pi/alat)
               b(1) = (  1.000000  0.000000  0.000000 )
               b(2) = (  0.000000  0.866197  0.000000 )
               b(3) = (  0.000000  0.000000  0.738000 )

     PseudoPot. # 1 for Zn read from file:
     /home/sacss11/scratch/sacss11/hmah/jobs/g_znpc/pp/Zn.pbe-d-hgh.UPF
     MD5 check sum: 840b59d6b5d6b778dd7efd2cc31f93c9
     Pseudo is Norm-conserving, Zval = 12.0
     Generated in analytical, separable form
     Using radial grid of 1201 points,  6 beta functions with:
                l(1) =   0
                l(2) =   0
                l(3) =   0
                l(4) =   1
                l(5) =   1
                l(6) =   2

     PseudoPot. # 2 for  N read from file:
     /home/sacss11/scratch/sacss11/hmah/jobs/g_znpc/pp/N.pbe-hgh.UPF
     MD5 check sum: 1504e9c56d21d37eacabc67df972de26
     Pseudo is Norm-conserving, Zval =  5.0
     Generated in analytical, separable form
     Using radial grid of 1085 points,  1 beta functions with:
                l(1) =   0

     PseudoPot. # 3 for  C read from file:
     /home/sacss11/scratch/sacss11/hmah/jobs/g_znpc/pp/C.pbe-hgh.UPF
     MD5 check sum: ca26ff84b356733038fc2f5c468d1892
     Pseudo is Norm-conserving, Zval =  4.0
     Generated in analytical, separable form
     Using radial grid of 1073 points,  1 beta functions with:
                l(1) =   0

     PseudoPot. # 4 for  H read from file:
     /home/sacss11/scratch/sacss11/hmah/jobs/g_znpc/pp/H.pbe-hgh.UPF
     MD5 check sum: 50ae4f52d34cf16cdfed4bce9c5a191e
     Pseudo is Norm-conserving, Zval =  1.0
     Generated in analytical, separable form
     Using radial grid of  929 points,  0 beta functions with:

     atomic species   valence    mass     pseudopotential
        Zn            12.00    65.39000     Zn( 1.00)
        N              5.00    14.00674      N( 1.00)
        C              4.00    12.01070      C( 1.00)
        H              1.00     1.00794      H( 1.00)

     Simplified LDA+U calculation (l_max = 2) with parameters (eV):
     atomic species    L          U    alpha       J0     beta
        Zn             2     7.0000   0.0000   0.0000   0.0000
        N              1     5.5000   0.0000   0.0000   0.0000
        C              1     5.5000   0.0000   0.0000   0.0000

     No symmetry found

   Cartesian axes

     site n.     atom                  positions (alat units)
         1           C   tau(   1) = (   0.0005331  -0.0007680   0.1364003  )
         2           C   tau(   2) = (   0.0005436   0.0954696   0.1360866  )
         3           C   tau(   3) = (   0.1672339  -0.0007321   0.1361813  )
         4           C   tau(   4) = (   0.1672873   0.0954781   0.1356568  )
         5           C   tau(   5) = (   0.0839428   0.1435446   0.1357904  )
         6           C   tau(   6) = (   0.0839298   0.2397561   0.1352565  )
         7           C   tau(   7) = (   0.0005255   0.2878242   0.1350901  )
         8           C   tau(   8) = (   0.0005193   0.3840567   0.1348964  )
         9           C   tau(   9) = (   0.3338789  -0.0007065   0.1357297  )
        10           C   tau(  10) = (   0.3339076   0.0954758   0.1348015  )
        11           C   tau(  11) = (   0.2506178   0.1435506   0.1347453  )
        12           C   tau(  12) = (   0.2506076   0.2397326   0.1341436  )
        13           C   tau(  13) = (   0.1672827   0.2878289   0.1345674  )
        14           C   tau(  14) = (   0.1672493   0.3840391   0.1343189  )
        15           C   tau(  15) = (   0.0838999   0.4321317   0.1347100  )
        16           C   tau(  16) = (   0.0838939   0.5283346   0.1346159  )
        17           C   tau(  17) = (   0.0005101   0.5764320   0.1348991  )
        18           C   tau(  18) = (   0.0005077   0.6726500   0.1350798  )
        19           C   tau(  19) = (   0.5005339  -0.0007450   0.1358908  )
        20           C   tau(  20) = (   0.5005399   0.0954867   0.1350756  )
        21           C   tau(  21) = (   0.4172400   0.1435550   0.1343518  )
        22           C   tau(  22) = (   0.4172540   0.2397408   0.1335666  )
        23           C   tau(  23) = (   0.3338974   0.2878312   0.1334624  )
        24           C   tau(  24) = (   0.3338470   0.3840373   0.1331259  )
        25           C   tau(  25) = (   0.2505451   0.4321320   0.1336034  )
        26           C   tau(  26) = (   0.2505082   0.5283335   0.1335608  )
        27           C   tau(  27) = (   0.1671990   0.5764585   0.1340873  )
        28           C   tau(  28) = (   0.1671839   0.6726350   0.1343091  )
        29           C   tau(  29) = (   0.0838679   0.7207112   0.1349413  )
        30           C   tau(  30) = (   0.0838577   0.8169009   0.1355401  )
        31           C   tau(  31) = (   0.0004917   0.8649999   0.1360772  )
        32           C   tau(  32) = (   0.0005023   0.9612502   0.1364052  )
        33           C   tau(  33) = (   0.6671939  -0.0007528   0.1360137  )
        34           C   tau(  34) = (   0.6672206   0.0954699   0.1353345  )
        35           C   tau(  35) = (   0.5838930   0.1435778   0.1348154  )
        36           C   tau(  36) = (   0.5839045   0.2397493   0.1338422  )
        37           C   tau(  37) = (   0.5005594   0.2878189   0.1332753  )
        38           C   tau(  38) = (   0.5005408   0.3840386   0.1327039  )
        39           C   tau(  39) = (   0.4171912   0.4321336   0.1326660  )
        40           C   tau(  40) = (   0.4171577   0.5283411   0.1327197  )
        41           C   tau(  41) = (   0.3338005   0.5764616   0.1332221  )
        42           C   tau(  42) = (   0.3337951   0.6726402   0.1337623  )
        43           C   tau(  43) = (   0.2504849   0.7207113   0.1342760  )
        44           C   tau(  44) = (   0.2504969   0.8169133   0.1349804  )
        45           C   tau(  45) = (   0.1671898   0.8650031   0.1355600  )
        46           C   tau(  46) = (   0.1671899   0.9612418   0.1361323  )
        47           C   tau(  47) = (   0.0838683   1.0093578   0.1363979  )
        48           C   tau(  48) = (   0.0838947   1.1055897   0.1364320  )
        49           C   tau(  49) = (   0.8338446  -0.0007632   0.1361505  )
        50           C   tau(  50) = (   0.8338412   0.0954670   0.1355961  )
        51           C   tau(  51) = (   0.7505560   0.1435584   0.1349639  )
        52           C   tau(  52) = (   0.7505614   0.2397616   0.1341895  )
        53           C   tau(  53) = (   0.6672259   0.2878401   0.1336197  )
        54           C   tau(  54) = (   0.6672187   0.3840347   0.1331038  )
        55           C   tau(  55) = (   0.5838907   0.4321204   0.1326537  )
        56           C   tau(  56) = (   0.5838613   0.5283251   0.1326729  )
        57           C   tau(  57) = (   0.5004830   0.5764550   0.1327792  )
        58           C   tau(  58) = (   0.5004658   0.6726581   0.1334000  )
        59           C   tau(  59) = (   0.4171471   0.7207195   0.1339786  )
        60           C   tau(  60) = (   0.4171639   0.8168878   0.1349058  )
[...]
       139           H   tau( 139) = (   0.4263714   0.0965917   0.3723921  )
       140           H   tau( 140) = (   0.6914855   0.1395635   0.3710825  )
       141           H   tau( 141) = (   0.8855922   0.4124219   0.3713639  )
       142           H   tau( 142) = (   0.8437165   0.6757371   0.3740265  )
       143           H   tau( 143) = (   0.5724431   0.8715189   0.3725519  )
       144           H   tau( 144) = (   0.3066714   0.8287634   0.3709758  )
       145           H   tau( 145) = (   0.1124256   0.5562530   0.3713899  )
       146           H   tau( 146) = (   0.1398800   0.1251394   0.3744396  )
       147           H   tau( 147) = (   0.2737052   0.0292925   0.3732319  )
       148           H   tau( 148) = (   0.8576395   0.1255595   0.3703069  )
       149           H   tau( 149) = (   0.9532984   0.2597728   0.3706243  )
       150           H   tau( 150) = (   0.8588889   0.8422603   0.3745179  )
       151           H   tau( 151) = (   0.7253733   0.9384606   0.3734876  )
       152           H   tau( 152) = (   0.1403828   0.8428916   0.3699888  )
       153           H   tau( 153) = (   0.0447516   0.7086824   0.3704558  )

     number of k points=     5
                       cart. coord. in units 2pi/alat
        k(    1) = (   0.1666667   0.1443662  -0.3690000), wk =   0.4444444
        k(    2) = (   0.1666667  -0.4330986  -0.3690000), wk =   0.4444444
        k(    3) = (  -0.5000000   0.1443662  -0.3690000), wk =   0.4444444
        k(    4) = (  -0.5000000  -0.4330986  -0.3690000), wk =   0.2222222
        k(    5) = (  -0.1666667   0.1443662   0.3690000), wk =   0.4444444

     Occupations read from input

        2.0000   2.0000   2.0000   2.0000   2.0000   2.0000   2.0000   2.0000
        2.0000   2.0000   2.0000   2.0000   2.0000   2.0000   2.0000   2.0000
        2.0000   2.0000   2.0000   2.0000   2.0000   2.0000   2.0000   2.0000
        2.0000   2.0000   2.0000   2.0000   2.0000   2.0000   2.0000   2.0000
        2.0000   2.0000   2.0000   2.0000   2.0000   2.0000   2.0000   2.0000
        2.0000   2.0000   2.0000   2.0000   2.0000   2.0000   2.0000   2.0000
        2.0000   2.0000   2.0000   2.0000   2.0000   2.0000   2.0000   2.0000
        2.0000   2.0000   2.0000   2.0000   2.0000   2.0000   2.0000   2.0000
        2.0000   2.0000   2.0000   2.0000   2.0000   2.0000   2.0000   2.0000
        2.0000   2.0000   2.0000   2.0000   2.0000   2.0000   2.0000   2.0000
        2.0000   2.0000   2.0000   2.0000   2.0000   2.0000   2.0000   2.0000
        2.0000   2.0000   2.0000   2.0000   2.0000   2.0000   2.0000   2.0000
        2.0000   2.0000   2.0000   2.0000   2.0000   2.0000   2.0000   2.0000
        2.0000   2.0000   2.0000   2.0000   2.0000   2.0000   2.0000   2.0000
[...]
  0.000  0.010  0.990
    occupations:
  0.739 -0.000 -0.001
 -0.000  0.877 -0.000
 -0.001 -0.000  0.878
atom   87   Tr[ns(na)] =   4.99115
    eigenvalues:
  0.741  0.877  0.877
    eigenvectors:
  1.000  0.000  0.000
  0.000  0.853  0.147
  0.000  0.147  0.853
    occupations:
  0.741  0.000 -0.000
  0.000  0.877 -0.000
 -0.000 -0.000  0.877
atom   88   Tr[ns(na)] =   4.98892
    eigenvalues:
  0.740  0.877  0.877
    eigenvectors:
  1.000  0.000  0.000
  0.000  1.000  0.000
  0.000  0.000  1.000
    occupations:
  0.740 -0.000  0.000
 -0.000  0.877  0.000
  0.000  0.000  0.877
atom   89   Tr[ns(na)] =   4.99282
    eigenvalues:
  0.742  0.877  0.878
    eigenvectors:
  1.000  0.000  0.000
  0.000  0.010  0.990
  0.000  0.990  0.010
    occupations:
  0.742 -0.000 -0.001
 -0.000  0.878 -0.000
 -0.001 -0.000  0.877
atom   90   Tr[ns(na)] =   4.98914
    eigenvalues:
  0.740  0.877  0.878
    eigenvectors:
  1.000  0.000  0.000
  0.000  0.102  0.898
  0.000  0.898  0.102
    occupations:
  0.740 -0.000 -0.001
 -0.000  0.878 -0.000
 -0.001 -0.000  0.877
atom   91   Tr[ns(na)] =   4.99277
    eigenvalues:
  0.742  0.877  0.878
    eigenvectors:
  1.000  0.000  0.000
  0.000  0.185  0.815
  0.000  0.815  0.185
    occupations:
  0.742 -0.001 -0.001
 -0.001  0.878  0.000
 -0.001  0.000  0.877
atom   92   Tr[ns(na)] =   4.98801
    eigenvalues:
  0.739  0.877  0.878
    eigenvectors:
  1.000  0.000  0.000
  0.000  1.000  0.000
  0.000  0.000  1.000
    occupations:
  0.739 -0.000 -0.000
 -0.000  0.877  0.000
 -0.000  0.000  0.878
atom   93   Tr[ns(na)] =   4.99122
    eigenvalues:
  0.741  0.877  0.877
    eigenvectors:
  1.000  0.000  0.000
  0.000  0.720  0.280
  0.000  0.280  0.720
    occupations:
  0.741 -0.000  0.000
 -0.000  0.877  0.000
  0.000  0.000  0.877
atom   94   Tr[ns(na)] =   4.98866
    eigenvalues:
  0.740  0.877  0.877
    eigenvectors:
  1.000  0.000  0.000
  0.000  0.964  0.036
  0.000  0.036  0.964
    occupations:
  0.740 -0.000  0.000
 -0.000  0.877  0.000
  0.000  0.000  0.877
atom   95   Tr[ns(na)] =   4.98850
    eigenvalues:
  0.740  0.877  0.877
    eigenvectors:
  1.000  0.000  0.000
  0.000  0.028  0.972
  0.000  0.972  0.028
    occupations:
  0.740 -0.000 -0.000
 -0.000  0.877 -0.000
 -0.000 -0.000  0.877
atom   96   Tr[ns(na)] =   4.98803
    eigenvalues:
  0.740  0.877  0.877
    eigenvectors:
  1.000  0.000  0.000
  0.000  0.245  0.755
  0.000  0.755  0.245
    occupations:
  0.740 -0.000  0.000
 -0.000  0.877  0.000
  0.000  0.000  0.877
atom   97   Tr[ns(na)] =   4.81891
    eigenvalues:
  0.708  0.835  0.867
    eigenvectors:
  1.000  0.000  0.000
  0.000  0.001  0.999
  0.000  0.999  0.001
    occupations:
  0.708  0.000 -0.000
  0.000  0.867  0.001
 -0.000  0.001  0.835
atom   98   Tr[ns(na)] =   4.82076
    eigenvalues:
  0.708  0.835  0.867
    eigenvectors:
  1.000  0.000  0.000
  0.000  0.918  0.082
  0.000  0.082  0.918
    occupations:
  0.708  0.001  0.000
  0.001  0.838 -0.009
  0.000 -0.009  0.864
atom   99   Tr[ns(na)] =   5.02663
    eigenvalues:
  0.759  0.858  0.896
    eigenvectors:
  1.000  0.000  0.000
  0.000  0.848  0.152
  0.000  0.152  0.848
    occupations:
  0.759  0.001 -0.000
  0.001  0.864 -0.014
 -0.000 -0.014  0.890
atom  100   Tr[ns(na)] =   5.02708
    eigenvalues:
  0.759  0.859  0.896
    eigenvectors:
  1.000  0.000  0.000
  0.000  0.005  0.995
  0.000  0.995  0.005
    occupations:
  0.759  0.000 -0.000
  0.000  0.896 -0.003
 -0.000 -0.003  0.859
atom  101   Tr[ns(na)] =   4.98060
    eigenvalues:
  0.700  0.876  0.914
    eigenvectors:
  1.000  0.000  0.000
  0.000  0.631  0.369
  0.000  0.369  0.631
    occupations:
  0.700 -0.001 -0.001
 -0.001  0.890  0.018
 -0.001  0.018  0.900
atom  102   Tr[ns(na)] =   4.98231
    eigenvalues:
  0.701  0.877  0.914
    eigenvectors:
  1.000  0.000  0.000
  0.000  0.694  0.306
  0.000  0.306  0.694
    occupations:
  0.701  0.001  0.001
  0.001  0.888  0.017
  0.001  0.017  0.903
atom  103   Tr[ns(na)] =   4.81796
    eigenvalues:
  0.707  0.835  0.867
    eigenvectors:
  1.000  0.000  0.000
  0.000  0.083  0.917
  0.000  0.917  0.083
    occupations:
  0.707 -0.001 -0.001
 -0.001  0.864  0.009
 -0.001  0.009  0.838
atom  104   Tr[ns(na)] =   4.82001
    eigenvalues:
  0.708  0.835  0.867
    eigenvectors:
  1.000  0.000  0.000
  0.000  0.999  0.000
  0.000  0.000  0.999
    occupations:
  0.708  0.001  0.002
  0.001  0.835 -0.001
  0.002 -0.001  0.867
atom  105   Tr[ns(na)] =   5.02554
    eigenvalues:
  0.758  0.858  0.896
    eigenvectors:
  1.000  0.000  0.000
  0.000  0.148  0.852
  0.000  0.852  0.148
    occupations:
  0.758 -0.002 -0.001
 -0.002  0.890  0.013
 -0.001  0.013  0.864
atom  106   Tr[ns(na)] =   5.02591
    eigenvalues:
  0.758  0.858  0.896
    eigenvectors:
  1.000  0.000  0.000
  0.000  0.995  0.005
  0.000  0.005  0.995
    occupations:
  0.758 -0.001 -0.001
 -0.001  0.859  0.003
 -0.001  0.003  0.896
atom  107   Tr[ns(na)] =   4.81850
    eigenvalues:
  0.707  0.835  0.867
    eigenvectors:
  1.000  0.000  0.000
  0.000  0.999  0.001
  0.000  0.001  0.999
    occupations:
  0.707 -0.001 -0.002
 -0.001  0.835 -0.001
 -0.002 -0.001  0.867
atom  108   Tr[ns(na)] =   4.98430
    eigenvalues:
  0.702  0.877  0.914
    eigenvectors:
  1.000  0.000  0.000
  0.000  0.369  0.630
  0.000  0.630  0.370
    occupations:
  0.702 -0.002 -0.000
 -0.002  0.900 -0.018
 -0.000 -0.018  0.890
atom  109   Tr[ns(na)] =   4.98000
    eigenvalues:
  0.700  0.877  0.914
    eigenvectors:
  1.000  0.000  0.000
  0.000  0.308  0.692
  0.000  0.692  0.308
    occupations:
  0.700 -0.001 -0.001
 -0.001  0.902 -0.017
 -0.001 -0.017  0.888
atom  110   Tr[ns(na)] =   5.02722
    eigenvalues:
  0.759  0.859  0.896
    eigenvectors:
  1.000  0.000  0.000
  0.000  0.995  0.005
  0.000  0.005  0.995
    occupations:
  0.759  0.001  0.001
  0.001  0.859  0.003
  0.001  0.003  0.896
atom  111   Tr[ns(na)] =   5.02597
    eigenvalues:
  0.759  0.858  0.896
    eigenvectors:
  1.000  0.000  0.000
  0.000  0.151  0.849
  0.000  0.849  0.151
    occupations:
  0.759  0.002  0.001
  0.002  0.890  0.013
  0.001  0.013  0.864
atom  112   Tr[ns(na)] =   4.82038
    eigenvalues:
  0.708  0.835  0.867
    eigenvectors:
  1.000  0.000  0.000
  0.000  0.082  0.918
  0.000  0.918  0.082
    occupations:
  0.708  0.001  0.001
  0.001  0.865  0.009
  0.001  0.009  0.838
atom  113   Tr[ns(na)] =   4.98029
    eigenvalues:
  0.700  0.876  0.914
    eigenvectors:
  1.000  0.000  0.000
  0.000  0.305  0.695
  0.000  0.695  0.305
    occupations:
  0.700  0.001  0.001
  0.001  0.903 -0.017
  0.001 -0.017  0.888
atom  114   Tr[ns(na)] =   4.98481
    eigenvalues:
  0.702  0.877  0.914
    eigenvectors:
  1.000  0.000  0.000
  0.000  0.368  0.632
  0.000  0.632  0.368
    occupations:
  0.702  0.003  0.000
  0.003  0.900 -0.018
  0.000 -0.018  0.890
atom  115   Tr[ns(na)] =   4.81966
    eigenvalues:
  0.708  0.836  0.867
    eigenvectors:
  1.000  0.000  0.000
  0.000  0.917  0.083
  0.000  0.083  0.917
    occupations:
  0.708 -0.001 -0.000
 -0.001  0.838 -0.009
 -0.000 -0.009  0.864
atom  116   Tr[ns(na)] =   5.02721
    eigenvalues:
  0.759  0.859  0.896
    eigenvectors:
  1.000  0.000  0.000
  0.000  0.849  0.151
  0.000  0.151  0.849
    occupations:
  0.759 -0.001  0.000
 -0.001  0.864 -0.013
  0.000 -0.013  0.891
atom  117   Tr[ns(na)] =   5.02733
    eigenvalues:
  0.759  0.859  0.896
    eigenvectors:
  1.000  0.000  0.000
  0.000  0.004  0.996
  0.000  0.996  0.004
    occupations:
  0.759 -0.001  0.000
 -0.001  0.896 -0.002
  0.000 -0.002  0.859
atom  118   Tr[ns(na)] =   4.81805
    eigenvalues:
  0.707  0.835  0.867
    eigenvectors:
  1.000  0.000  0.000
  0.000  0.001  0.999
  0.000  0.999  0.001
    occupations:
  0.707 -0.000  0.000
 -0.000  0.867  0.001
  0.000  0.001  0.835
atom  119   Tr[ns(na)] =   4.98071
    eigenvalues:
  0.700  0.876  0.914
    eigenvectors:
  1.000  0.000  0.000
  0.000  0.635  0.365
  0.000  0.365  0.635
    occupations:
  0.700  0.000  0.001
  0.000  0.890  0.018
  0.001  0.018  0.900
atom  120   Tr[ns(na)] =   4.98136
    eigenvalues:
  0.700  0.876  0.914
    eigenvectors:
  1.000  0.000  0.000
  0.000  0.697  0.303
  0.000  0.303  0.697
    occupations:
  0.700 -0.001 -0.001
 -0.001  0.888  0.017
 -0.001  0.017  0.903
atom  121   Tr[ns(na)] =   5.00191
    eigenvalues:
  0.716  0.876  0.909
    eigenvectors:
  1.000  0.000  0.000
  0.000  0.008  0.992
  0.000  0.992  0.008
    occupations:
  0.716 -0.000  0.001
 -0.000  0.909 -0.003
  0.001 -0.003  0.877
atom  122   Tr[ns(na)] =   4.99913
    eigenvalues:
  0.714  0.876  0.909
    eigenvectors:
  1.000  0.000  0.000
  0.000  0.827  0.173
  0.000  0.173  0.827
    occupations:
  0.714 -0.001  0.001
 -0.001  0.882 -0.012
  0.001 -0.012  0.903
atom  123   Tr[ns(na)] =   4.99810
    eigenvalues:
  0.714  0.876  0.909
    eigenvectors:
  1.000  0.000  0.000
  0.000  0.991  0.009
  0.000  0.009  0.991
    occupations:
  0.714  0.001  0.000
  0.001  0.876  0.003
  0.000  0.003  0.909
atom  124   Tr[ns(na)] =   5.00089
    eigenvalues:
  0.715  0.876  0.909
    eigenvectors:
  1.000  0.000  0.000
  0.000  0.166  0.834
  0.000  0.834  0.166
    occupations:
  0.715  0.002  0.001
  0.002  0.904  0.012
  0.001  0.012  0.882
atom  125   Tr[ns(na)] =   5.00221
    eigenvalues:
  0.716  0.876  0.909
    eigenvectors:
  1.000  0.000  0.000
  0.000  0.008  0.992
  0.000  0.992  0.008
    occupations:
  0.716  0.000 -0.000
  0.000  0.909 -0.003
 -0.000 -0.003  0.877
atom  126   Tr[ns(na)] =   4.99913
    eigenvalues:
  0.714  0.876  0.909
    eigenvectors:
  1.000  0.000  0.000
  0.000  0.829  0.171
  0.000  0.171  0.829
    occupations:
  0.714  0.000 -0.001
  0.000  0.882 -0.012
 -0.001 -0.012  0.903
atom  127   Tr[ns(na)] =   4.99776
    eigenvalues:
  0.714  0.876  0.909
    eigenvectors:
  1.000  0.000  0.000
  0.000  0.990  0.010
  0.000  0.010  0.990
    occupations:
  0.714 -0.001 -0.000
 -0.001  0.876  0.003
 -0.000  0.003  0.909
atom  128   Tr[ns(na)] =   5.00055
    eigenvalues:
  0.715  0.876  0.909
    eigenvectors:
  1.000  0.000  0.000
  0.000  0.164  0.836
  0.000  0.836  0.164
    occupations:
  0.715 -0.002 -0.001
 -0.002  0.904  0.012
 -0.001  0.012  0.881
atom  129   Tr[ns(na)] =   9.38612
    eigenvalues:
  0.900  0.938  0.951  0.951  0.952
    eigenvectors:
  0.000  1.000  0.000  0.000  0.000
  0.000  0.000  0.484  0.516  0.000
  0.000  0.000  0.516  0.484  0.000
  0.097  0.000  0.000  0.000  0.903
  0.903  0.000  0.000  0.000  0.097
    occupations:
  0.938  0.000  0.000 -0.000 -0.001
  0.000  0.951  0.000 -0.000  0.000
  0.000  0.000  0.951  0.000 -0.000
 -0.000 -0.000  0.000  0.947  0.015
 -0.001  0.000 -0.000  0.015  0.905
atom  130   Tr[ns(na)] =   5.28708
    eigenvalues:
  0.855  0.875  0.914
    eigenvectors:
  1.000  0.000  0.000
  0.000  0.347  0.652
  0.000  0.653  0.347
    occupations:
  0.855 -0.000  0.000
 -0.000  0.900 -0.019
  0.000 -0.019  0.888
atom  131   Tr[ns(na)] =   5.20993
    eigenvalues:
  0.777  0.883  0.945
    eigenvectors:
  1.000  0.000  0.000
  0.000  0.975  0.025
  0.000  0.025  0.975
    occupations:
  0.777 -0.000 -0.001
 -0.000  0.884 -0.010
 -0.001 -0.010  0.943
atom  132   Tr[ns(na)] =   5.21352
    eigenvalues:
  0.778  0.884  0.945
    eigenvectors:
  1.000  0.000  0.000
  0.000  0.024  0.976
  0.000  0.976  0.024
    occupations:
  0.778  0.001  0.001
  0.001  0.944  0.009
  0.001  0.009  0.885
atom  133   Tr[ns(na)] =   5.27906
    eigenvalues:
  0.852  0.874  0.914
    eigenvectors:
  1.000  0.000  0.000
  0.000  0.654  0.346
  0.000  0.346  0.654
    occupations:
  0.852 -0.000 -0.000
 -0.000  0.888  0.019
 -0.000  0.019  0.900
atom  134   Tr[ns(na)] =   5.21039
    eigenvalues:
  0.777  0.883  0.945
    eigenvectors:
  1.000  0.000  0.000
  0.000  0.024  0.976
  0.000  0.976  0.024
    occupations:
  0.777 -0.001 -0.001
 -0.001  0.943  0.009
 -0.001  0.009  0.885
atom  135   Tr[ns(na)] =   5.28416
    eigenvalues:
  0.854  0.874  0.914
    eigenvectors:
  1.000  0.000  0.000
  0.000  0.665  0.335
  0.000  0.335  0.665
    occupations:
  0.854  0.000  0.000
  0.000  0.888  0.019
  0.000  0.019  0.901
atom  136   Tr[ns(na)] =   5.21015
    eigenvalues:
  0.777  0.883  0.945
    eigenvectors:
  1.000  0.000  0.000
  0.000  0.974  0.026
  0.000  0.026  0.974
    occupations:
  0.777  0.000  0.001
  0.000  0.885 -0.010
  0.001 -0.010  0.943
atom  137   Tr[ns(na)] =   5.28012
    eigenvalues:
  0.853  0.874  0.914
    eigenvectors:
  1.000  0.000  0.000
  0.000  0.341  0.659
  0.000  0.659  0.341
    occupations:
  0.853  0.000 -0.000
  0.000  0.900 -0.019
 -0.000 -0.019  0.887
N of occupied +U levels =  689.140238
 --- exit write_ns ---

          k = 0.1667 0.1444-0.3690 (266428 PWs)   bands (ev):

[...]

          k = 0.1667-0.4331-0.3690 (266460 PWs)   bands (ev):

[...]

          k =-0.5000 0.1444-0.3690 (266316 PWs)   bands (ev):

[...]

          k =-0.1667 0.1444 0.3690 (266428 PWs)   bands (ev):

   -25.8259 -25.7897 -25.7743 -25.7198 -24.6007 -23.9495 -23.9436 -23.3301
   -22.8097 -22.7985 -22.7709 -22.7408 -22.7195 -22.6984 -22.6495 -22.6465
   -22.6247 -22.5393 -22.5046 -22.4815 -22.3937 -22.3616 -22.2956 -22.2773
   -22.1949 -22.1482 -22.0832 -22.0696 -21.9503 -21.9333 -21.8609 -21.8307
   -21.7966 -21.7568 -21.4024 -21.3296 -21.1876 -21.1539 -21.0240 -21.0148
   -20.6426 -20.6307 -20.5915 -20.4147 -20.1852 -20.1742 -20.0104 -19.8777
   -19.7271 -19.5344 -19.4783 -19.3469 -19.2935 -19.2837 -19.2796 -19.2125
   -19.1658 -19.1401 -19.0152 -18.9961 -18.9887 -18.9134 -18.8067 -18.6700
   -18.3040 -18.3012 -17.9554 -17.7354 -17.7253 -17.3170 -17.1874 -17.0149
   -17.0026 -16.9960 -16.8591 -16.8438 -16.7850 -16.7658 -16.4597 -16.4295
   -16.2548 -16.2258 -16.2130 -16.1776 -16.1654 -16.1386 -15.9533 -15.9351
   -15.8850 -15.5319 -15.5160 -15.4686 -15.3880 -15.3072 -15.2404 -15.1927
   -15.1879 -15.0980 -15.0621 -14.8918 -14.8692 -14.7774 -14.6843 -14.6441
   -14.4611 -14.1625 -14.1412 -14.0412 -13.8660 -13.7859 -13.7799 -13.7710
   -13.7263 -13.6976 -13.6843 -13.6244 -13.5525 -13.5502 -13.5095 -13.4568
   -13.1401 -12.9825 -12.9391 -12.8893 -12.8771 -12.7345 -12.6739 -12.5327
   -12.4940 -12.4393 -12.3075 -12.2999 -12.1637 -12.1248 -12.0806 -11.9733
   -11.9309 -11.9164 -11.8828 -11.8725 -11.8274 -11.7919 -11.7894 -11.7202
   -11.6903 -11.6633 -11.5184 -11.4987 -11.4782 -11.4248 -11.4001 -11.3532
   -11.3453 -11.3172 -11.1549 -11.1201 -11.0875 -11.0694 -11.0646 -10.9355
   -10.8550 -10.8344 -10.6749 -10.6004 -10.5494 -10.5287 -10.5211 -10.4961
   -10.4855 -10.4760 -10.4305 -10.4019 -10.3937 -10.3534 -10.3343 -10.3190
   -10.3167 -10.2783 -10.2384 -10.1303 -10.0692 -10.0252  -9.9828  -9.9420
    -9.8719  -9.8513  -9.8110  -9.7942  -9.7640  -9.7540  -9.7265  -9.7257
    -9.6531  -9.6187  -9.5724  -9.5349  -9.4379  -9.4342  -9.3833  -9.3745
    -9.3193  -9.3087  -9.2463  -9.2234  -9.2164  -9.0835  -8.9574  -8.9335
    -8.8929  -8.8606  -8.8237  -8.8044  -8.7942  -8.7152  -8.6157  -8.6063
    -8.5767  -8.5260  -8.3999  -8.3399  -8.2750  -8.1892  -8.1317  -8.1168
    -8.1030  -8.0793  -8.0321  -8.0220  -7.9271  -7.9032  -7.8418  -7.7762
    -7.7227  -7.6777  -7.6658  -7.6503  -7.5817  -7.4911  -7.4522  -7.4075
    -7.3942  -7.3245  -7.2838  -7.2187  -7.0633  -7.0475  -7.0231  -6.9442
    -6.7955  -6.7856  -6.6316  -6.5965  -6.5864  -6.5568  -6.3545  -6.2409
    -6.1982  -6.1118  -6.0603  -6.0569  -6.0109  -5.9967  -5.9224  -5.9160
    -5.8430  -5.8132  -5.7084  -5.6666  -5.6267  -5.5840  -5.5749  -5.5552
    -5.5199  -5.4066  -5.3179  -5.2699  -5.1312  -5.0803  -4.9702  -4.9425
    -4.9102  -4.8102  -4.6965  -4.5559  -4.2563  -4.1635  -3.8143  -3.8000
    -2.9912  -2.9616  -2.2435  -2.2217  -1.8432  -1.8034  -0.8432  -0.8234
    -0.5946  -0.5777  -0.5024  -0.4251  -0.4111  -0.3301  -0.3219  -0.2939
    -0.2692  -0.2018  -0.1136   0.0586   0.0859   0.1365   0.3960   0.4352
     0.7105   0.7596   0.8662   0.9781   1.1614   1.2523   1.3377   1.3444

     highest occupied, lowest unoccupied level (ev):    -0.9588   -1.8103

!    total energy              =   -1712.81776101 Ry
     Harris-Foulkes estimate   =   -1712.81776144 Ry
     estimated scf accuracy    <       0.00000055 Ry

     The total energy is the sum of the following terms:

     one-electron contribution =  -17101.40878896 Ry
     hartree contribution      =    8659.00763192 Ry
     xc contribution           =    -516.29344183 Ry
     ewald contribution        =    7223.55957294 Ry
     Hubbard energy            =      22.31726493 Ry

     convergence has been achieved in  41 iterations

     Writing output data file x0.scf.slg.gs.ex1.3k.save

     General routines

     Parallel routines

     Hubbard U routines

   This run was terminated on:  16:55: 4   8Sep2019

   JOB DONE.