     Program PWSCF v.5.2.0 starts on  8Sep2019 at 17:58:50

     Current dimensions of program PWSCF are:
     Max number of different atomic species (ntypx) = 10
     Max number of k-points (npk) =  40000
     Max angular momentum in pseudopotentials (lmaxx) =  3

     bravais-lattice index     =            0
     lattice parameter (alat)  =      27.8924  a.u.
     unit-cell volume          =   33945.5266 (a.u.)^3
     number of atoms/cell      =          153
     number of atomic types    =            4
     number of electrons       =       580.00
     number of Kohn-Sham states=          320
     kinetic-energy cutoff     =      60.0000  Ry
     charge density cutoff     =     240.0000  Ry
     convergence threshold     =      1.0E-06
     mixing beta               =       0.7000
     number of iterations used =            8  local-TF  mixing
     Exchange-correlation      = SLA-PW-PBX-PBC ( 1  4  3  4 0 0)

     celldm(1)=  27.892358  celldm(2)=   0.000000  celldm(3)=   0.000000
     celldm(4)=   0.000000  celldm(5)=   0.000000  celldm(6)=   0.000000

     crystal axes: (cart. coord. in units of alat)
               a(1) = (   1.000000   0.000000   0.000000 )
               a(2) = (   0.000000   1.154472   0.000000 )
               a(3) = (   0.000000   0.000000   1.355014 )

     reciprocal axes: (cart. coord. in units 2 pi/alat)
               b(1) = (  1.000000  0.000000  0.000000 )
               b(2) = (  0.000000  0.866197  0.000000 )
               b(3) = (  0.000000  0.000000  0.738000 )

     PseudoPot. # 1 for Zn read from file:
     /home/sacss11/scratch/sacss11/hmah/jobs/g_znpc/pp/Zn.pbe-d-hgh.UPF
     MD5 check sum: 840b59d6b5d6b778dd7efd2cc31f93c9
     Pseudo is Norm-conserving, Zval = 12.0
     Generated in analytical, separable form
     Using radial grid of 1201 points,  6 beta functions with:
                l(1) =   0
                l(2) =   0
                l(3) =   0
                l(4) =   1
                l(5) =   1
                l(6) =   2

     PseudoPot. # 2 for  N read from file:
     /home/sacss11/scratch/sacss11/hmah/jobs/g_znpc/pp/N.pbe-hgh.UPF
     MD5 check sum: 1504e9c56d21d37eacabc67df972de26
     Pseudo is Norm-conserving, Zval =  5.0
     Generated in analytical, separable form
     Using radial grid of 1085 points,  1 beta functions with:
                l(1) =   0

     PseudoPot. # 3 for  C read from file:
     /home/sacss11/scratch/sacss11/hmah/jobs/g_znpc/pp/C.pbe-hgh.UPF
     MD5 check sum: ca26ff84b356733038fc2f5c468d1892
     Pseudo is Norm-conserving, Zval =  4.0
     Generated in analytical, separable form
     Using radial grid of 1073 points,  1 beta functions with:
                l(1) =   0

     PseudoPot. # 4 for  H read from file:
     /home/sacss11/scratch/sacss11/hmah/jobs/g_znpc/pp/H.pbe-hgh.UPF
     MD5 check sum: 50ae4f52d34cf16cdfed4bce9c5a191e
     Pseudo is Norm-conserving, Zval =  1.0
     Generated in analytical, separable form
     Using radial grid of  929 points,  0 beta functions with:

     atomic species   valence    mass     pseudopotential
        Zn            12.00    65.39000     Zn( 1.00)
        N              5.00    14.00674      N( 1.00)
        C              4.00    12.01070      C( 1.00)
        H              1.00     1.00794      H( 1.00)

     Simplified LDA+U calculation (l_max = 2) with parameters (eV):
     atomic species    L          U    alpha       J0     beta
        Zn             2     7.0000   0.0000   0.0000   0.0000
        N              1     5.5000   0.0000   0.0000   0.0000
        C              1     5.5000   0.0000   0.0000   0.0000

     No symmetry found

   Cartesian axes

     site n.     atom                  positions (alat units)
         1           C   tau(   1) = (   0.0000558  -0.0008601   0.1405242  )
         2           C   tau(   2) = (   0.0000492   0.0953317   0.1390949  )
         3           C   tau(   3) = (   0.1667572  -0.0008357   0.1395557  )
         4           C   tau(   4) = (   0.1667911   0.0953317   0.1380799  )
         5           C   tau(   5) = (   0.0834277   0.1434366   0.1378714  )
         6           C   tau(   6) = (   0.0834145   0.2396132   0.1359329  )
         7           C   tau(   7) = (   0.0000321   0.2876978   0.1352679  )
         8           C   tau(   8) = (   0.0000412   0.3839058   0.1342487  )
         9           C   tau(   9) = (   0.3333996  -0.0008250   0.1373152  )
        10           C   tau(  10) = (   0.3334092   0.0953165   0.1360410  )
        11           C   tau(  11) = (   0.2501023   0.1434283   0.1362344  )
        12           C   tau(  12) = (   0.2500939   0.2395851   0.1348788  )
        13           C   tau(  13) = (   0.1667814   0.2876945   0.1347860  )
        14           C   tau(  14) = (   0.1667658   0.3838834   0.1339424  )
        15           C   tau(  15) = (   0.0834115   0.4320239   0.1339205  )
        16           C   tau(  16) = (   0.0834255   0.5281912   0.1338676  )
        17           C   tau(  17) = (   0.0000674   0.5763418   0.1342324  )
        18           C   tau(  18) = (   0.0000802   0.6725188   0.1352302  )
        19           C   tau(  19) = (   0.5000539  -0.0008650   0.1362736  )
        20           C   tau(  20) = (   0.5000485   0.0953246   0.1353580  )
        21           C   tau(  21) = (   0.4167279   0.1434301   0.1349059  )
        22           C   tau(  22) = (   0.4167443   0.2395939   0.1340127  )
        23           C   tau(  23) = (   0.3334051   0.2876979   0.1339836  )
        24           C   tau(  24) = (   0.3333737   0.3838824   0.1333910  )
        25           C   tau(  25) = (   0.2500608   0.4320157   0.1334590  )
        26           C   tau(  26) = (   0.2500450   0.5281811   0.1333799  )
        27           C   tau(  27) = (   0.1667516   0.5763543   0.1337767  )
        28           C   tau(  28) = (   0.1667460   0.6724951   0.1346284  )
        29           C   tau(  29) = (   0.0834270   0.7206199   0.1357842  )
        30           C   tau(  30) = (   0.0834184   0.8167747   0.1377766  )
        31           C   tau(  31) = (   0.0000664   0.8648821   0.1390267  )
        32           C   tau(  32) = (   0.0000578   0.9611031   0.1404886  )
        33           C   tau(  33) = (   0.6667219  -0.0008654   0.1374030  )
        34           C   tau(  34) = (   0.6667326   0.0953140   0.1362951  )
        35           C   tau(  35) = (   0.5833868   0.1434498   0.1351051  )
        36           C   tau(  36) = (   0.5834006   0.2396013   0.1340195  )
        37           C   tau(  37) = (   0.5000725   0.2876862   0.1334993  )
        38           C   tau(  38) = (   0.5000681   0.3838869   0.1329571  )
        39           C   tau(  39) = (   0.4167131   0.4320197   0.1329202  )
        40           C   tau(  40) = (   0.4166966   0.5281855   0.1328691  )
        41           C   tau(  41) = (   0.3333587   0.5763425   0.1332634  )
        42           C   tau(  42) = (   0.3333618   0.6724872   0.1339047  )
        43           C   tau(  43) = (   0.2500421   0.7206128   0.1348276  )
        44           C   tau(  44) = (   0.2500511   0.8167819   0.1362997  )
        45           C   tau(  45) = (   0.1667590   0.8648868   0.1380731  )
        46           C   tau(  46) = (   0.1667491   0.9610930   0.1395517  )
        47           C   tau(  47) = (   0.0834077   1.0092572   0.1406420  )
        48           C   tau(  48) = (   0.0834111   1.1054531   0.1406445  )
        49           C   tau(  49) = (   0.8333647  -0.0008600   0.1396049  )
        50           C   tau(  50) = (   0.8333547   0.0953253   0.1381854  )
        51           C   tau(  51) = (   0.7500568   0.1434392   0.1363735  )
        52           C   tau(  52) = (   0.7500642   0.2396119   0.1348537  )
        53           C   tau(  53) = (   0.6667417   0.2877040   0.1338790  )
        54           C   tau(  54) = (   0.6667468   0.3838801   0.1332449  )
        55           C   tau(  55) = (   0.5834092   0.4320063   0.1328742  )
        56           C   tau(  56) = (   0.5833946   0.5281690   0.1329476  )
        57           C   tau(  57) = (   0.5000401   0.5763280   0.1329832  )
        58           C   tau(  58) = (   0.5000344   0.6724954   0.1335452  )
        59           C   tau(  59) = (   0.4167077   0.7206040   0.1340500  )
        60           C   tau(  60) = (   0.4167221   0.8167509   0.1351306  )
[...]
       139           H   tau( 139) = (   0.4289889   0.0955925   0.3703373  )
       140           H   tau( 140) = (   0.6976646   0.1396255   0.3696057  )
       141           H   tau( 141) = (   0.8877210   0.4163364   0.3698372  )
       142           H   tau( 142) = (   0.8436627   0.6779189   0.3721798  )
       143           H   tau( 143) = (   0.5695607   0.8716021   0.3704949  )
       144           H   tau( 144) = (   0.3056632   0.8284719   0.3696662  )
       145           H   tau( 145) = (   0.1111182   0.5547047   0.3698803  )
       146           H   tau( 146) = (   0.1416491   0.1232636   0.3740638  )
       147           H   tau( 147) = (   0.2757719   0.0279759   0.3729691  )
       148           H   tau( 148) = (   0.8645166   0.1286338   0.3714101  )
       149           H   tau( 149) = (   0.9581329   0.2638612   0.3716146  )
       150           H   tau( 150) = (   0.8569589   0.8450942   0.3741386  )
       151           H   tau( 151) = (   0.7227087   0.9400173   0.3732337  )
       152           H   tau( 152) = (   0.1382175   0.8422339   0.3712932  )
       153           H   tau( 153) = (   0.0432159   0.7081557   0.3714503  )

     number of k points=     5
                       cart. coord. in units 2pi/alat
        k(    1) = (   0.1666667   0.1443662  -0.3690000), wk =   0.4444444
        k(    2) = (   0.1666667  -0.4330986  -0.3690000), wk =   0.4444444
        k(    3) = (  -0.5000000   0.1443662  -0.3690000), wk =   0.4444444
        k(    4) = (  -0.5000000  -0.4330986  -0.3690000), wk =   0.2222222
        k(    5) = (  -0.1666667   0.1443662   0.3690000), wk =   0.4444444

     Occupations read from input

        2.0000   2.0000   2.0000   2.0000   2.0000   2.0000   2.0000   2.0000
        2.0000   2.0000   2.0000   2.0000   2.0000   2.0000   2.0000   2.0000
        2.0000   2.0000   2.0000   2.0000   2.0000   2.0000   2.0000   2.0000
        2.0000   2.0000   2.0000   2.0000   2.0000   2.0000   2.0000   2.0000
        2.0000   2.0000   2.0000   2.0000   2.0000   2.0000   2.0000   2.0000
        2.0000   2.0000   2.0000   2.0000   2.0000   2.0000   2.0000   2.0000
        2.0000   2.0000   2.0000   2.0000   2.0000   2.0000   2.0000   2.0000
        2.0000   2.0000   2.0000   2.0000   2.0000   2.0000   2.0000   2.0000
        2.0000   2.0000   2.0000   2.0000   2.0000   2.0000   2.0000   2.0000
        2.0000   2.0000   2.0000   2.0000   2.0000   2.0000   2.0000   2.0000
        2.0000   2.0000   2.0000   2.0000   2.0000   2.0000   2.0000   2.0000
        2.0000   2.0000   2.0000   2.0000   2.0000   2.0000   2.0000   2.0000
        2.0000   2.0000   2.0000   2.0000   2.0000   2.0000   2.0000   2.0000
        2.0000   2.0000   2.0000   2.0000   2.0000   2.0000   2.0000   2.0000
[...]
  0.000  1.000  0.000
  0.000  0.000  1.000
    occupations:
  0.739 -0.002 -0.002
 -0.002  0.877 -0.000
 -0.002 -0.000  0.878
atom   87   Tr[ns(na)] =   4.98640
    eigenvalues:
  0.739  0.877  0.877
    eigenvectors:
  1.000  0.000  0.000
  0.000  0.862  0.138
  0.000  0.138  0.862
    occupations:
  0.739 -0.001  0.000
 -0.001  0.877 -0.000
  0.000 -0.000  0.877
atom   88   Tr[ns(na)] =   4.98557
    eigenvalues:
  0.738  0.877  0.877
    eigenvectors:
  1.000  0.000  0.000
  0.000  0.961  0.039
  0.000  0.039  0.961
    occupations:
  0.738 -0.001 -0.000
 -0.001  0.877 -0.000
 -0.000 -0.000  0.877
atom   89   Tr[ns(na)] =   4.98748
    eigenvalues:
  0.739  0.877  0.878
    eigenvectors:
  1.000  0.000  0.000
  0.000  0.012  0.988
  0.000  0.988  0.012
    occupations:
  0.739 -0.000 -0.003
 -0.000  0.878  0.000
 -0.003  0.000  0.877
atom   90   Tr[ns(na)] =   4.98815
    eigenvalues:
  0.739  0.877  0.877
    eigenvectors:
  1.000  0.000  0.000
  0.000  0.379  0.621
  0.000  0.621  0.379
    occupations:
  0.739 -0.001 -0.003
 -0.001  0.877 -0.000
 -0.003 -0.000  0.877
atom   91   Tr[ns(na)] =   4.98701
    eigenvalues:
  0.739  0.877  0.878
    eigenvectors:
  1.000  0.000  0.000
  0.000  0.218  0.782
  0.000  0.782  0.218
    occupations:
  0.739 -0.001 -0.002
 -0.001  0.878  0.000
 -0.002  0.000  0.877
atom   92   Tr[ns(na)] =   4.98728
    eigenvalues:
  0.739  0.877  0.877
    eigenvectors:
  1.000  0.000  0.000
  0.000  1.000  0.000
  0.000  0.000  1.000
    occupations:
  0.739 -0.001 -0.002
 -0.001  0.877 -0.000
 -0.002 -0.000  0.877
atom   93   Tr[ns(na)] =   4.98765
    eigenvalues:
  0.739  0.877  0.877
    eigenvectors:
  1.000  0.000  0.000
  0.000  0.808  0.192
  0.000  0.192  0.808
    occupations:
  0.739 -0.002 -0.000
 -0.002  0.877  0.000
 -0.000  0.000  0.877
atom   94   Tr[ns(na)] =   4.98660
    eigenvalues:
  0.739  0.877  0.877
    eigenvectors:
  1.000  0.000  0.000
  0.000  0.999  0.001
  0.000  0.001  0.999
    occupations:
  0.739 -0.002  0.000
 -0.002  0.877 -0.000
  0.000 -0.000  0.877
atom   95   Tr[ns(na)] =   4.98656
    eigenvalues:
  0.739  0.877  0.877
    eigenvectors:
  1.000  0.000  0.000
  0.000  0.778  0.222
  0.000  0.222  0.778
    occupations:
  0.739 -0.001 -0.001
 -0.001  0.877  0.000
 -0.001  0.000  0.877
atom   96   Tr[ns(na)] =   4.98630
    eigenvalues:
  0.739  0.877  0.877
    eigenvectors:
  1.000  0.000  0.000
  0.000  0.985  0.015
  0.000  0.015  0.985
    occupations:
  0.739 -0.001  0.000
 -0.001  0.877 -0.000
  0.000 -0.000  0.877
atom   97   Tr[ns(na)] =   4.82383
    eigenvalues:
  0.713  0.835  0.864
    eigenvectors:
  1.000  0.000  0.000
  0.000  0.000  1.000
  0.000  1.000  0.000
    occupations:
  0.713  0.001 -0.001
  0.001  0.864  0.000
 -0.001  0.000  0.835
atom   98   Tr[ns(na)] =   4.82605
    eigenvalues:
  0.714  0.835  0.865
    eigenvectors:
  1.000  0.000  0.000
  0.000  0.895  0.104
  0.000  0.104  0.896
    occupations:
  0.714  0.001 -0.000
  0.001  0.838 -0.009
 -0.000 -0.009  0.861
atom   99   Tr[ns(na)] =   5.02651
    eigenvalues:
  0.757  0.860  0.896
    eigenvectors:
  1.000  0.000  0.000
  0.000  0.822  0.178
  0.000  0.178  0.822
    occupations:
  0.757  0.001 -0.001
  0.001  0.866 -0.014
 -0.001 -0.014  0.890
atom  100   Tr[ns(na)] =   5.02729
    eigenvalues:
  0.757  0.860  0.896
    eigenvectors:
  1.000  0.000  0.000
  0.000  0.010  0.989
  0.000  0.990  0.010
    occupations:
  0.757  0.002 -0.001
  0.002  0.896 -0.004
 -0.001 -0.004  0.861
atom  101   Tr[ns(na)] =   4.98665
    eigenvalues:
  0.704  0.876  0.913
    eigenvectors:
  1.000  0.000  0.000
  0.000  0.638  0.362
  0.000  0.362  0.638
    occupations:
  0.704  0.002 -0.002
  0.002  0.889  0.018
 -0.002  0.018  0.900
atom  102   Tr[ns(na)] =   4.98759
    eigenvalues:
  0.705  0.876  0.913
    eigenvectors:
  1.000  0.000  0.000
  0.000  0.686  0.314
  0.000  0.314  0.686
    occupations:
  0.705  0.003 -0.001
  0.003  0.888  0.017
 -0.001  0.017  0.902
atom  103   Tr[ns(na)] =   4.82242
    eigenvalues:
  0.712  0.835  0.864
    eigenvectors:
  1.000  0.000  0.000
  0.000  0.097  0.903
  0.000  0.903  0.097
    occupations:
  0.712 -0.002 -0.002
 -0.002  0.861  0.008
 -0.002  0.008  0.838
atom  104   Tr[ns(na)] =   4.82389
    eigenvalues:
  0.714  0.834  0.865
    eigenvectors:
  0.999  0.000  0.000
  0.000  0.999  0.001
  0.000  0.001  0.999
    occupations:
  0.714  0.002  0.003
  0.002  0.834 -0.001
  0.003 -0.001  0.865
atom  105   Tr[ns(na)] =   5.02550
    eigenvalues:
  0.757  0.860  0.896
    eigenvectors:
  0.999  0.000  0.000
  0.000  0.178  0.822
  0.000  0.822  0.178
    occupations:
  0.757 -0.002 -0.002
 -0.002  0.890  0.014
 -0.002  0.014  0.866
atom  106   Tr[ns(na)] =   5.02678
    eigenvalues:
  0.757  0.861  0.896
    eigenvectors:
  1.000  0.000  0.000
  0.000  0.991  0.009
  0.000  0.009  0.991
    occupations:
  0.757 -0.002 -0.002
 -0.002  0.861  0.003
 -0.002  0.003  0.896
atom  107   Tr[ns(na)] =   4.82231
    eigenvalues:
  0.712  0.835  0.864
    eigenvectors:
  0.999  0.000  0.000
  0.000  1.000  0.000
  0.000  0.000  1.000
    occupations:
  0.712 -0.002 -0.003
 -0.002  0.835 -0.000
 -0.003 -0.000  0.864
atom  108   Tr[ns(na)] =   4.98897
    eigenvalues:
  0.706  0.876  0.913
    eigenvectors:
  1.000  0.000  0.000
  0.000  0.349  0.651
  0.000  0.651  0.349
    occupations:
  0.706 -0.003 -0.002
 -0.003  0.900 -0.017
 -0.002 -0.017  0.889
atom  109   Tr[ns(na)] =   4.98550
    eigenvalues:
  0.704  0.876  0.913
    eigenvectors:
  1.000  0.000  0.000
  0.000  0.306  0.693
  0.000  0.693  0.307
    occupations:
  0.704 -0.003 -0.002
 -0.003  0.902 -0.017
 -0.002 -0.017  0.887
atom  110   Tr[ns(na)] =   5.02664
    eigenvalues:
  0.757  0.860  0.896
    eigenvectors:
  1.000  0.000  0.000
  0.000  0.989  0.011
  0.000  0.011  0.989
    occupations:
  0.757  0.002  0.002
  0.002  0.861  0.004
  0.002  0.004  0.895
atom  111   Tr[ns(na)] =   5.02677
    eigenvalues:
  0.757  0.860  0.896
    eigenvectors:
  0.999  0.000  0.000
  0.000  0.178  0.821
  0.000  0.822  0.178
    occupations:
  0.757  0.002  0.002
  0.002  0.890  0.014
  0.002  0.014  0.866
atom  112   Tr[ns(na)] =   4.82320
    eigenvalues:
  0.714  0.833  0.865
    eigenvectors:
  1.000  0.000  0.000
  0.000  0.091  0.909
  0.000  0.909  0.091
    occupations:
  0.714  0.002  0.002
  0.002  0.862  0.009
  0.002  0.009  0.836
atom  113   Tr[ns(na)] =   4.98657
    eigenvalues:
  0.704  0.876  0.913
    eigenvectors:
  1.000  0.000  0.000
  0.000  0.311  0.689
  0.000  0.688  0.311
    occupations:
  0.704  0.003  0.002
  0.003  0.902 -0.017
  0.002 -0.017  0.888
atom  114   Tr[ns(na)] =   4.99011
    eigenvalues:
  0.706  0.876  0.913
    eigenvectors:
  1.000  0.000  0.000
  0.000  0.365  0.635
  0.000  0.634  0.365
    occupations:
  0.706  0.003  0.002
  0.003  0.900 -0.018
  0.002 -0.018  0.890
atom  115   Tr[ns(na)] =   4.82793
    eigenvalues:
  0.713  0.836  0.864
    eigenvectors:
  1.000  0.000  0.000
  0.000  0.897  0.103
  0.000  0.103  0.897
    occupations:
  0.713 -0.001  0.000
 -0.001  0.839 -0.009
  0.000 -0.009  0.862
atom  116   Tr[ns(na)] =   5.02560
    eigenvalues:
  0.757  0.860  0.896
    eigenvectors:
  1.000  0.000  0.000
  0.000  0.802  0.198
  0.000  0.198  0.802
    occupations:
  0.757 -0.001  0.001
 -0.001  0.867 -0.014
  0.001 -0.014  0.889
atom  117   Tr[ns(na)] =   5.02776
    eigenvalues:
  0.757  0.861  0.896
    eigenvectors:
  1.000  0.000  0.000
  0.000  0.007  0.993
  0.000  0.993  0.007
    occupations:
  0.757 -0.002  0.001
 -0.002  0.896 -0.003
  0.001 -0.003  0.861
atom  118   Tr[ns(na)] =   4.82229
    eigenvalues:
  0.713  0.833  0.865
    eigenvectors:
  1.000  0.000  0.000
  0.000  0.000  1.000
  0.000  1.000  0.000
    occupations:
  0.713 -0.001  0.001
 -0.001  0.865  0.000
  0.001  0.000  0.833
atom  119   Tr[ns(na)] =   4.98779
    eigenvalues:
  0.705  0.876  0.913
    eigenvectors:
  1.000  0.000  0.000
  0.000  0.664  0.336
  0.000  0.336  0.664
    occupations:
  0.705 -0.002  0.002
 -0.002  0.888  0.017
  0.002  0.017  0.901
atom  120   Tr[ns(na)] =   4.98769
    eigenvalues:
  0.704  0.876  0.913
    eigenvectors:
  1.000  0.000  0.000
  0.000  0.705  0.295
  0.000  0.295  0.705
    occupations:
  0.704 -0.003  0.001
 -0.003  0.887  0.017
  0.001  0.017  0.902
atom  121   Tr[ns(na)] =   5.00903
    eigenvalues:
  0.721  0.876  0.908
    eigenvectors:
  1.000  0.000  0.000
  0.000  0.012  0.988
  0.000  0.988  0.012
    occupations:
  0.721  0.002 -0.001
  0.002  0.907 -0.003
 -0.001 -0.003  0.876
atom  122   Tr[ns(na)] =   5.00802
    eigenvalues:
  0.720  0.876  0.908
    eigenvectors:
  1.000  0.000  0.000
  0.000  0.815  0.185
  0.000  0.185  0.815
    occupations:
  0.720  0.002 -0.001
  0.002  0.882 -0.012
 -0.001 -0.012  0.902
atom  123   Tr[ns(na)] =   5.00719
    eigenvalues:
  0.720  0.876  0.908
    eigenvectors:
  1.000  0.000  0.000
  0.000  0.988  0.012
  0.000  0.012  0.988
    occupations:
  0.720  0.002  0.001
  0.002  0.876  0.003
  0.001  0.003  0.908
atom  124   Tr[ns(na)] =   5.00936
    eigenvalues:
  0.721  0.876  0.908
    eigenvectors:
  1.000  0.000  0.000
  0.000  0.179  0.820
  0.000  0.820  0.179
    occupations:
  0.721  0.002  0.002
  0.002  0.902  0.012
  0.002  0.012  0.882
atom  125   Tr[ns(na)] =   5.00980
    eigenvalues:
  0.721  0.876  0.908
    eigenvectors:
  1.000  0.000  0.000
  0.000  0.009  0.991
  0.000  0.991  0.009
    occupations:
  0.721 -0.002  0.001
 -0.002  0.908 -0.003
  0.001 -0.003  0.876
atom  126   Tr[ns(na)] =   5.00847
    eigenvalues:
  0.720  0.876  0.908
    eigenvectors:
  1.000  0.000  0.000
  0.000  0.808  0.192
  0.000  0.192  0.808
    occupations:
  0.720 -0.002  0.001
 -0.002  0.882 -0.013
  0.001 -0.013  0.902
atom  127   Tr[ns(na)] =   5.00778
    eigenvalues:
  0.720  0.876  0.908
    eigenvectors:
  1.000  0.000  0.000
  0.000  0.989  0.011
  0.000  0.011  0.989
    occupations:
  0.720 -0.002 -0.002
 -0.002  0.876  0.003
 -0.002  0.003  0.908
atom  128   Tr[ns(na)] =   5.00964
    eigenvalues:
  0.721  0.876  0.908
    eigenvectors:
  1.000  0.000  0.000
  0.000  0.178  0.821
  0.000  0.822  0.178
    occupations:
  0.721 -0.002 -0.002
 -0.002  0.902  0.012
 -0.002  0.012  0.882
atom  129   Tr[ns(na)] =   9.45573
    eigenvalues:
  0.930  0.945  0.946  0.948  0.959
    eigenvectors:
  0.997  0.000  0.000  0.000  0.003
  0.000  0.313  0.687  0.000  0.000
  0.000  0.687  0.313  0.000  0.000
  0.001  0.000  0.000  0.895  0.105
  0.002  0.000  0.000  0.105  0.892
    occupations:
  0.930  0.000  0.000 -0.001  0.001
  0.000  0.945 -0.000  0.000  0.000
  0.000 -0.000  0.945  0.000 -0.000
 -0.001  0.000  0.000  0.949 -0.003
  0.001  0.000 -0.000 -0.003  0.958
atom  130   Tr[ns(na)] =   5.27272
    eigenvalues:
  0.838  0.869  0.929
    eigenvectors:
  1.000  0.000  0.000
  0.000  0.344  0.656
  0.000  0.656  0.344
    occupations:
  0.838  0.000 -0.000
  0.000  0.909 -0.028
 -0.000 -0.028  0.890
atom  131   Tr[ns(na)] =   5.19984
    eigenvalues:
  0.775  0.881  0.944
    eigenvectors:
  1.000  0.000  0.000
  0.000  0.975  0.025
  0.000  0.025  0.975
    occupations:
  0.775 -0.000 -0.001
 -0.000  0.882 -0.010
 -0.001 -0.010  0.942
atom  132   Tr[ns(na)] =   5.20209
    eigenvalues:
  0.776  0.881  0.944
    eigenvectors:
  1.000  0.000  0.000
  0.000  0.029  0.971
  0.000  0.971  0.029
    occupations:
  0.776  0.001  0.001
  0.001  0.942  0.011
  0.001  0.011  0.883
atom  133   Tr[ns(na)] =   5.26552
    eigenvalues:
  0.837  0.868  0.928
    eigenvectors:
  1.000  0.000  0.000
  0.000  0.665  0.335
  0.000  0.335  0.665
    occupations:
  0.837 -0.001 -0.001
 -0.001  0.888  0.028
 -0.001  0.028  0.908
atom  134   Tr[ns(na)] =   5.20088
    eigenvalues:
  0.775  0.881  0.944
    eigenvectors:
  1.000  0.000  0.000
  0.000  0.029  0.971
  0.000  0.971  0.029
    occupations:
  0.775 -0.001 -0.001
 -0.001  0.942  0.010
 -0.001  0.010  0.883
atom  135   Tr[ns(na)] =   5.28662
    eigenvalues:
  0.844  0.871  0.929
    eigenvectors:
  1.000  0.000  0.000
  0.000  0.664  0.335
  0.000  0.336  0.664
    occupations:
  0.844  0.001  0.001
  0.001  0.890  0.027
  0.001  0.027  0.909
atom  136   Tr[ns(na)] =   5.20116
    eigenvalues:
  0.775  0.881  0.944
    eigenvectors:
  1.000  0.000  0.000
  0.000  0.975  0.025
  0.000  0.025  0.975
    occupations:
  0.775  0.000  0.001
  0.000  0.883 -0.010
  0.001 -0.010  0.943
atom  137   Tr[ns(na)] =   5.27161
    eigenvalues:
  0.837  0.869  0.929
    eigenvectors:
  1.000  0.000  0.000
  0.000  0.322  0.677
  0.000  0.678  0.322
    occupations:
  0.837 -0.000  0.000
 -0.000  0.910 -0.028
  0.000 -0.028  0.889
N of occupied +U levels =  688.918124
 --- exit write_ns ---

          k = 0.1667 0.1444-0.3690 (266428 PWs)   bands (ev):

[...]

          k = 0.1667-0.4331-0.3690 (266460 PWs)   bands (ev):

[...]

          k =-0.5000 0.1444-0.3690 (266316 PWs)   bands (ev):

[...]

          k =-0.1667 0.1444 0.3690 (266428 PWs)   bands (ev):

   -25.0946 -25.0761 -25.0616 -25.0273 -23.9180 -23.3513 -23.3412 -23.1070
   -23.0869 -23.0616 -23.0388 -23.0133 -22.9801 -22.9291 -22.9252 -22.9066
   -22.8151 -22.7968 -22.7694 -22.7271 -22.6699 -22.6193 -22.5691 -22.5530
   -22.4439 -22.2715 -22.2370 -22.1464 -22.1054 -22.0867 -21.8135 -21.7331
   -21.6646 -21.6462 -21.6011 -21.4718 -21.4557 -21.3581 -21.3116 -21.3009
   -20.9312 -20.9217 -20.8833 -20.7035 -20.4719 -20.4661 -20.1776 -19.8259
   -19.7705 -19.6422 -19.5804 -19.5268 -19.4765 -19.4616 -19.4254 -19.2914
   -19.1766 -19.1023 -18.7714 -18.7444 -18.6158 -18.5972 -18.5898 -18.5652
   -18.4286 -18.3041 -17.6129 -17.5409 -17.4882 -17.3099 -17.2992 -17.2913
   -17.2487 -17.2452 -17.1517 -17.1328 -17.0690 -16.7236 -16.5491 -16.5037
   -16.4387 -16.2427 -16.2308 -16.1840 -16.0359 -15.7965 -15.7671 -15.7607
   -15.6827 -15.6050 -15.5423 -15.5188 -15.4873 -15.4824 -15.3964 -15.1873
   -15.1693 -15.0850 -15.0794 -15.0566 -14.9802 -14.9431 -14.7710 -14.5842
   -14.3367 -14.1659 -14.1155 -14.0752 -13.9859 -13.9227 -13.8529 -13.8471
   -13.8057 -13.7574 -13.6932 -13.6636 -13.5547 -13.4389 -13.2761 -13.2239
   -13.2119 -13.1832 -12.9688 -12.8805 -12.8314 -12.7507 -12.7395 -12.6021
   -12.5961 -12.4640 -12.4242 -12.2116 -12.1829 -12.1557 -12.1272 -12.0923
   -12.0885 -12.0669 -12.0160 -11.9599 -11.7750 -11.7374 -11.7030 -11.6612
   -11.6545 -11.6413 -11.5278 -11.5008 -11.4590 -11.4499 -11.4199 -11.4161
   -11.3883 -11.3689 -11.3679 -11.1471 -11.1294 -11.1057 -11.0063 -10.9807
   -10.8954 -10.8530 -10.8475 -10.8195 -10.7970 -10.7036 -10.6948 -10.6367
   -10.6281 -10.4336 -10.3900 -10.3838 -10.3703 -10.3215 -10.2433 -10.2412
   -10.1672 -10.1490 -10.1084 -10.0960 -10.0733 -10.0655 -10.0454 -10.0429
   -10.0322 -10.0218 -10.0012  -9.9577  -9.9177  -9.9042  -9.8737  -9.8275
    -9.7311  -9.6865  -9.6848  -9.6132  -9.5438  -9.5429  -9.5160  -9.4221
    -9.3054  -9.2114  -9.1948  -9.1622  -9.1231  -9.1018  -8.9957  -8.9238
    -8.9112  -8.8241  -8.7388  -8.6351  -8.5730  -8.5449  -8.4877  -8.4123
    -8.4051  -8.3447  -8.2697  -8.2322  -8.0763  -8.0595  -7.9870  -7.9688
    -7.9223  -7.8818  -7.8746  -7.8478  -7.7976  -7.7940  -7.7538  -7.7407
    -7.7175  -7.6201  -7.5997  -7.5676  -7.5202  -7.4063  -7.3585  -7.3538
    -7.3455  -7.2804  -7.2238  -7.0989  -7.0914  -7.0855  -7.0691  -7.0534
    -6.9946  -6.9583  -6.8815  -6.8301  -6.7570  -6.4515  -6.4230  -6.3971
    -6.3577  -6.3120  -6.2456  -6.1956  -6.0401  -5.9832  -5.9748  -5.6906
    -5.6155  -5.5256  -5.5104  -5.4980  -5.4869  -5.4770  -5.4479  -5.3868
    -5.3314  -5.2972  -5.2294  -5.2128  -5.1643  -5.1389  -5.0715  -5.0298
    -4.9790  -4.9331  -4.8999  -4.7844  -4.5026  -4.4221  -3.4670  -3.2465
    -3.2117  -2.6919  -2.1407  -2.1086  -1.7843  -1.7804  -1.1063  -1.0894
    -0.8479  -0.7607  -0.6940  -0.6813  -0.6146  -0.5670  -0.5620  -0.4936
    -0.2513  -0.1786   0.0296   0.1280   0.1798   0.2004   0.3344   0.3755
     0.4465   0.5071   0.6082   0.7098   0.9133   0.9935   1.1842   1.3964

     highest occupied, lowest unoccupied level (ev):    -2.6894   -2.1445

!    total energy              =   -1712.96267948 Ry
     Harris-Foulkes estimate   =   -1712.96268013 Ry
     estimated scf accuracy    <       0.00000083 Ry

     The total energy is the sum of the following terms:

     one-electron contribution =  -17198.66806528 Ry
     hartree contribution      =    8707.10729071 Ry
     xc contribution           =    -516.09425717 Ry
     ewald contribution        =    7272.35358712 Ry
     Hubbard energy            =      22.33876514 Ry

     convergence has been achieved in  19 iterations

     Writing output data file x0.scf.slg.gs.3k.save

     General routines

     Parallel routines

     Hubbard U routines

   This run was terminated on:  18:28:43   8Sep2019

   JOB DONE.