     Program PWSCF v.5.2.0 starts on  7Sep2019 at 19:34:22

     Current dimensions of program PWSCF are:
     Max number of different atomic species (ntypx) = 10
     Max number of k-points (npk) =  40000
     Max angular momentum in pseudopotentials (lmaxx) =  3

     bravais-lattice index     =            0
     lattice parameter (alat)  =      27.8924  a.u.
     unit-cell volume          =   33945.5266 (a.u.)^3
     number of atoms/cell      =          153
     number of atomic types    =            4
     number of electrons       =       580.00
     number of Kohn-Sham states=          320
     kinetic-energy cutoff     =      60.0000  Ry
     charge density cutoff     =     240.0000  Ry
     convergence threshold     =      1.0E-06
     mixing beta               =       0.7000
     number of iterations used =            8  local-TF  mixing
     Exchange-correlation      = SLA-PW-PBX-PBC ( 1  4  3  4 0 0)

     celldm(1)=  27.892358  celldm(2)=   0.000000  celldm(3)=   0.000000
     celldm(4)=   0.000000  celldm(5)=   0.000000  celldm(6)=   0.000000

     crystal axes: (cart. coord. in units of alat)
               a(1) = (   1.000000   0.000000   0.000000 )
               a(2) = (   0.000000   1.154472   0.000000 )
               a(3) = (   0.000000   0.000000   1.355014 )

     reciprocal axes: (cart. coord. in units 2 pi/alat)
               b(1) = (  1.000000  0.000000  0.000000 )
               b(2) = (  0.000000  0.866197  0.000000 )
               b(3) = (  0.000000  0.000000  0.738000 )

     PseudoPot. # 1 for Zn read from file:
     /home/sacss11/scratch/sacss11/hmah/jobs/g_znpc/pp/Zn.pbe-d-hgh.UPF
     MD5 check sum: 840b59d6b5d6b778dd7efd2cc31f93c9
     Pseudo is Norm-conserving, Zval = 12.0
     Generated in analytical, separable form
     Using radial grid of 1201 points,  6 beta functions with:
                l(1) =   0
                l(2) =   0
                l(3) =   0
                l(4) =   1
                l(5) =   1
                l(6) =   2

     PseudoPot. # 2 for  N read from file:
     /home/sacss11/scratch/sacss11/hmah/jobs/g_znpc/pp/N.pbe-hgh.UPF
     MD5 check sum: 1504e9c56d21d37eacabc67df972de26
     Pseudo is Norm-conserving, Zval =  5.0
     Generated in analytical, separable form
     Using radial grid of 1085 points,  1 beta functions with:
                l(1) =   0

     PseudoPot. # 3 for  C read from file:
     /home/sacss11/scratch/sacss11/hmah/jobs/g_znpc/pp/C.pbe-hgh.UPF
     MD5 check sum: ca26ff84b356733038fc2f5c468d1892
     Pseudo is Norm-conserving, Zval =  4.0
     Generated in analytical, separable form
     Using radial grid of 1073 points,  1 beta functions with:
                l(1) =   0

     PseudoPot. # 4 for  H read from file:
     /home/sacss11/scratch/sacss11/hmah/jobs/g_znpc/pp/H.pbe-hgh.UPF
     MD5 check sum: 50ae4f52d34cf16cdfed4bce9c5a191e
     Pseudo is Norm-conserving, Zval =  1.0
     Generated in analytical, separable form
     Using radial grid of  929 points,  0 beta functions with:

     atomic species   valence    mass     pseudopotential
        Zn            12.00    65.39000     Zn( 1.00)
        N              5.00    14.00674      N( 1.00)
        C              4.00    12.01070      C( 1.00)
        H              1.00     1.00794      H( 1.00)

     Simplified LDA+U calculation (l_max = 2) with parameters (eV):
     atomic species    L          U    alpha       J0     beta
        Zn             2     7.0000   0.0000   0.0000   0.0000
        N              1     5.5000   0.0000   0.0000   0.0000
        C              1     5.5000   0.0000   0.0000   0.0000

     No symmetry found

   Cartesian axes

     site n.     atom                  positions (alat units)
         1           C   tau(   1) = (   0.0005331  -0.0007680   0.1364003  )
         2           C   tau(   2) = (   0.0005436   0.0954696   0.1360866  )
         3           C   tau(   3) = (   0.1672339  -0.0007321   0.1361813  )
         4           C   tau(   4) = (   0.1672873   0.0954781   0.1356568  )
         5           C   tau(   5) = (   0.0839428   0.1435446   0.1357904  )
         6           C   tau(   6) = (   0.0839298   0.2397561   0.1352565  )
         7           C   tau(   7) = (   0.0005255   0.2878242   0.1350901  )
         8           C   tau(   8) = (   0.0005193   0.3840567   0.1348964  )
         9           C   tau(   9) = (   0.3338789  -0.0007065   0.1357297  )
        10           C   tau(  10) = (   0.3339076   0.0954758   0.1348015  )
        11           C   tau(  11) = (   0.2506178   0.1435506   0.1347453  )
        12           C   tau(  12) = (   0.2506076   0.2397326   0.1341436  )
        13           C   tau(  13) = (   0.1672827   0.2878289   0.1345674  )
        14           C   tau(  14) = (   0.1672493   0.3840391   0.1343189  )
        15           C   tau(  15) = (   0.0838999   0.4321317   0.1347100  )
        16           C   tau(  16) = (   0.0838939   0.5283346   0.1346159  )
        17           C   tau(  17) = (   0.0005101   0.5764320   0.1348991  )
        18           C   tau(  18) = (   0.0005077   0.6726500   0.1350798  )
        19           C   tau(  19) = (   0.5005339  -0.0007450   0.1358908  )
        20           C   tau(  20) = (   0.5005399   0.0954867   0.1350756  )
        21           C   tau(  21) = (   0.4172400   0.1435550   0.1343518  )
        22           C   tau(  22) = (   0.4172540   0.2397408   0.1335666  )
        23           C   tau(  23) = (   0.3338974   0.2878312   0.1334624  )
        24           C   tau(  24) = (   0.3338470   0.3840373   0.1331259  )
        25           C   tau(  25) = (   0.2505451   0.4321320   0.1336034  )
        26           C   tau(  26) = (   0.2505082   0.5283335   0.1335608  )
        27           C   tau(  27) = (   0.1671990   0.5764585   0.1340873  )
        28           C   tau(  28) = (   0.1671839   0.6726350   0.1343091  )
        29           C   tau(  29) = (   0.0838679   0.7207112   0.1349413  )
        30           C   tau(  30) = (   0.0838577   0.8169009   0.1355401  )
        31           C   tau(  31) = (   0.0004917   0.8649999   0.1360772  )
        32           C   tau(  32) = (   0.0005023   0.9612502   0.1364052  )
        33           C   tau(  33) = (   0.6671939  -0.0007528   0.1360137  )
        34           C   tau(  34) = (   0.6672206   0.0954699   0.1353345  )
        35           C   tau(  35) = (   0.5838930   0.1435778   0.1348154  )
        36           C   tau(  36) = (   0.5839045   0.2397493   0.1338422  )
        37           C   tau(  37) = (   0.5005594   0.2878189   0.1332753  )
        38           C   tau(  38) = (   0.5005408   0.3840386   0.1327039  )
        39           C   tau(  39) = (   0.4171912   0.4321336   0.1326660  )
        40           C   tau(  40) = (   0.4171577   0.5283411   0.1327197  )
        41           C   tau(  41) = (   0.3338005   0.5764616   0.1332221  )
        42           C   tau(  42) = (   0.3337951   0.6726402   0.1337623  )
        43           C   tau(  43) = (   0.2504849   0.7207113   0.1342760  )
        44           C   tau(  44) = (   0.2504969   0.8169133   0.1349804  )
        45           C   tau(  45) = (   0.1671898   0.8650031   0.1355600  )
        46           C   tau(  46) = (   0.1671899   0.9612418   0.1361323  )
        47           C   tau(  47) = (   0.0838683   1.0093578   0.1363979  )
        48           C   tau(  48) = (   0.0838947   1.1055897   0.1364320  )
        49           C   tau(  49) = (   0.8338446  -0.0007632   0.1361505  )
        50           C   tau(  50) = (   0.8338412   0.0954670   0.1355961  )
        51           C   tau(  51) = (   0.7505560   0.1435584   0.1349639  )
        52           C   tau(  52) = (   0.7505614   0.2397616   0.1341895  )
        53           C   tau(  53) = (   0.6672259   0.2878401   0.1336197  )
        54           C   tau(  54) = (   0.6672187   0.3840347   0.1331038  )
        55           C   tau(  55) = (   0.5838907   0.4321204   0.1326537  )
        56           C   tau(  56) = (   0.5838613   0.5283251   0.1326729  )
        57           C   tau(  57) = (   0.5004830   0.5764550   0.1327792  )
        58           C   tau(  58) = (   0.5004658   0.6726581   0.1334000  )
        59           C   tau(  59) = (   0.4171471   0.7207195   0.1339786  )
        60           C   tau(  60) = (   0.4171639   0.8168878   0.1349058  )
[...]
       139           H   tau( 139) = (   0.4263714   0.0965917   0.3723921  )
       140           H   tau( 140) = (   0.6914855   0.1395635   0.3710825  )
       141           H   tau( 141) = (   0.8855922   0.4124219   0.3713639  )
       142           H   tau( 142) = (   0.8437165   0.6757371   0.3740265  )
       143           H   tau( 143) = (   0.5724431   0.8715189   0.3725519  )
       144           H   tau( 144) = (   0.3066714   0.8287634   0.3709758  )
       145           H   tau( 145) = (   0.1124256   0.5562530   0.3713899  )
       146           H   tau( 146) = (   0.1398800   0.1251394   0.3744396  )
       147           H   tau( 147) = (   0.2737052   0.0292925   0.3732319  )
       148           H   tau( 148) = (   0.8576395   0.1255595   0.3703069  )
       149           H   tau( 149) = (   0.9532984   0.2597728   0.3706243  )
       150           H   tau( 150) = (   0.8588889   0.8422603   0.3745179  )
       151           H   tau( 151) = (   0.7253733   0.9384606   0.3734876  )
       152           H   tau( 152) = (   0.1403828   0.8428916   0.3699888  )
       153           H   tau( 153) = (   0.0447516   0.7086824   0.3704558  )

     number of k points=     5
                       cart. coord. in units 2pi/alat
        k(    1) = (   0.1666667   0.1443662  -0.3690000), wk =   0.4444444
        k(    2) = (   0.1666667  -0.4330986  -0.3690000), wk =   0.4444444
        k(    3) = (  -0.5000000   0.1443662  -0.3690000), wk =   0.4444444
        k(    4) = (  -0.5000000  -0.4330986  -0.3690000), wk =   0.2222222
        k(    5) = (  -0.1666667   0.1443662   0.3690000), wk =   0.4444444

     Occupations read from input

        2.0000   2.0000   2.0000   2.0000   2.0000   2.0000   2.0000   2.0000
        2.0000   2.0000   2.0000   2.0000   2.0000   2.0000   2.0000   2.0000
        2.0000   2.0000   2.0000   2.0000   2.0000   2.0000   2.0000   2.0000
        2.0000   2.0000   2.0000   2.0000   2.0000   2.0000   2.0000   2.0000
        2.0000   2.0000   2.0000   2.0000   2.0000   2.0000   2.0000   2.0000
        2.0000   2.0000   2.0000   2.0000   2.0000   2.0000   2.0000   2.0000
        2.0000   2.0000   2.0000   2.0000   2.0000   2.0000   2.0000   2.0000
        2.0000   2.0000   2.0000   2.0000   2.0000   2.0000   2.0000   2.0000
        2.0000   2.0000   2.0000   2.0000   2.0000   2.0000   2.0000   2.0000
        2.0000   2.0000   2.0000   2.0000   2.0000   2.0000   2.0000   2.0000
        2.0000   2.0000   2.0000   2.0000   2.0000   2.0000   2.0000   2.0000
        2.0000   2.0000   2.0000   2.0000   2.0000   2.0000   2.0000   2.0000
        2.0000   2.0000   2.0000   2.0000   2.0000   2.0000   2.0000   2.0000
        2.0000   2.0000   2.0000   2.0000   2.0000   2.0000   2.0000   2.0000
[...]
  0.000  0.000  1.000
    occupations:
  0.739 -0.000 -0.001
 -0.000  0.877  0.000
 -0.001  0.000  0.878
atom   87   Tr[ns(na)] =   4.98871
    eigenvalues:
  0.740  0.877  0.877
    eigenvectors:
  1.000  0.000  0.000
  0.000  0.920  0.080
  0.000  0.080  0.920
    occupations:
  0.740  0.000 -0.000
  0.000  0.877  0.000
 -0.000  0.000  0.877
atom   88   Tr[ns(na)] =   4.98851
    eigenvalues:
  0.740  0.877  0.877
    eigenvectors:
  1.000  0.000  0.000
  0.000  0.791  0.209
  0.000  0.209  0.791
    occupations:
  0.740 -0.000  0.000
 -0.000  0.877 -0.000
  0.000 -0.000  0.877
atom   89   Tr[ns(na)] =   4.99211
    eigenvalues:
  0.741  0.877  0.878
    eigenvectors:
  1.000  0.000  0.000
  0.000  0.013  0.987
  0.000  0.987  0.013
    occupations:
  0.741 -0.000 -0.001
 -0.000  0.878  0.000
 -0.001  0.000  0.877
atom   90   Tr[ns(na)] =   4.99067
    eigenvalues:
  0.741  0.877  0.878
    eigenvectors:
  1.000  0.000  0.000
  0.000  0.309  0.691
  0.000  0.691  0.309
    occupations:
  0.741 -0.000 -0.001
 -0.000  0.877 -0.000
 -0.001 -0.000  0.877
atom   91   Tr[ns(na)] =   4.99064
    eigenvalues:
  0.740  0.877  0.878
    eigenvectors:
  1.000  0.000  0.000
  0.000  0.299  0.701
  0.000  0.701  0.299
    occupations:
  0.740 -0.001 -0.001
 -0.001  0.878  0.000
 -0.001  0.000  0.877
atom   92   Tr[ns(na)] =   4.99061
    eigenvalues:
  0.741  0.877  0.877
    eigenvectors:
  1.000  0.000  0.000
  0.000  0.990  0.010
  0.000  0.010  0.990
    occupations:
  0.741 -0.000 -0.000
 -0.000  0.877  0.000
 -0.000  0.000  0.877
atom   93   Tr[ns(na)] =   4.99090
    eigenvalues:
  0.741  0.877  0.877
    eigenvectors:
  1.000  0.000  0.000
  0.000  0.995  0.005
  0.000  0.005  0.995
    occupations:
  0.741 -0.000  0.000
 -0.000  0.877  0.000
  0.000  0.000  0.877
atom   94   Tr[ns(na)] =   4.98828
    eigenvalues:
  0.740  0.877  0.877
    eigenvectors:
  1.000  0.000  0.000
  0.000  0.978  0.022
  0.000  0.022  0.978
    occupations:
  0.740 -0.000  0.000
 -0.000  0.877  0.000
  0.000  0.000  0.877
atom   95   Tr[ns(na)] =   4.98890
    eigenvalues:
  0.740  0.877  0.877
    eigenvectors:
  1.000  0.000  0.000
  0.000  0.323  0.677
  0.000  0.677  0.323
    occupations:
  0.740 -0.000  0.000
 -0.000  0.877  0.000
  0.000  0.000  0.877
atom   96   Tr[ns(na)] =   4.98695
    eigenvalues:
  0.739  0.877  0.877
    eigenvectors:
  1.000  0.000  0.000
  0.000  0.832  0.168
  0.000  0.168  0.832
    occupations:
  0.739 -0.000  0.000
 -0.000  0.877 -0.000
  0.000 -0.000  0.877
atom   97   Tr[ns(na)] =   4.81875
    eigenvalues:
  0.708  0.835  0.867
    eigenvectors:
  1.000  0.000  0.000
  0.000  0.001  0.999
  0.000  0.999  0.001
    occupations:
  0.708  0.000 -0.000
  0.000  0.867  0.001
 -0.000  0.001  0.835
atom   98   Tr[ns(na)] =   4.82079
    eigenvalues:
  0.708  0.835  0.867
    eigenvectors:
  1.000  0.000  0.000
  0.000  0.918  0.082
  0.000  0.082  0.918
    occupations:
  0.708  0.001  0.000
  0.001  0.838 -0.009
  0.000 -0.009  0.864
atom   99   Tr[ns(na)] =   5.02657
    eigenvalues:
  0.759  0.858  0.896
    eigenvectors:
  1.000  0.000  0.000
  0.000  0.848  0.152
  0.000  0.152  0.848
    occupations:
  0.759  0.001 -0.000
  0.001  0.864 -0.014
 -0.000 -0.014  0.890
atom  100   Tr[ns(na)] =   5.02703
    eigenvalues:
  0.759  0.859  0.896
    eigenvectors:
  1.000  0.000  0.000
  0.000  0.005  0.995
  0.000  0.995  0.005
    occupations:
  0.759  0.000 -0.000
  0.000  0.896 -0.003
 -0.000 -0.003  0.859
atom  101   Tr[ns(na)] =   4.98058
    eigenvalues:
  0.700  0.876  0.914
    eigenvectors:
  1.000  0.000  0.000
  0.000  0.631  0.369
  0.000  0.369  0.631
    occupations:
  0.700 -0.001 -0.001
 -0.001  0.890  0.018
 -0.001  0.018  0.900
atom  102   Tr[ns(na)] =   4.98229
    eigenvalues:
  0.701  0.877  0.914
    eigenvectors:
  1.000  0.000  0.000
  0.000  0.694  0.306
  0.000  0.306  0.694
    occupations:
  0.701  0.001  0.001
  0.001  0.888  0.017
  0.001  0.017  0.903
atom  103   Tr[ns(na)] =   4.81788
    eigenvalues:
  0.707  0.835  0.867
    eigenvectors:
  1.000  0.000  0.000
  0.000  0.083  0.917
  0.000  0.917  0.083
    occupations:
  0.707 -0.001 -0.001
 -0.001  0.864  0.009
 -0.001  0.009  0.838
atom  104   Tr[ns(na)] =   4.82014
    eigenvalues:
  0.708  0.835  0.867
    eigenvectors:
  1.000  0.000  0.000
  0.000  0.999  0.000
  0.000  0.000  0.999
    occupations:
  0.708  0.001  0.002
  0.001  0.835 -0.001
  0.002 -0.001  0.867
atom  105   Tr[ns(na)] =   5.02559
    eigenvalues:
  0.758  0.858  0.896
    eigenvectors:
  1.000  0.000  0.000
  0.000  0.148  0.852
  0.000  0.852  0.148
    occupations:
  0.758 -0.002 -0.001
 -0.002  0.890  0.013
 -0.001  0.013  0.864
atom  106   Tr[ns(na)] =   5.02593
    eigenvalues:
  0.758  0.858  0.896
    eigenvectors:
  1.000  0.000  0.000
  0.000  0.995  0.005
  0.000  0.005  0.995
    occupations:
  0.758 -0.001 -0.001
 -0.001  0.859  0.003
 -0.001  0.003  0.896
atom  107   Tr[ns(na)] =   4.81860
    eigenvalues:
  0.707  0.835  0.867
    eigenvectors:
  1.000  0.000  0.000
  0.000  0.999  0.001
  0.000  0.001  0.999
    occupations:
  0.707 -0.001 -0.002
 -0.001  0.835 -0.001
 -0.002 -0.001  0.867
atom  108   Tr[ns(na)] =   4.98403
    eigenvalues:
  0.702  0.877  0.914
    eigenvectors:
  1.000  0.000  0.000
  0.000  0.369  0.630
  0.000  0.630  0.370
    occupations:
  0.702 -0.003 -0.000
 -0.003  0.900 -0.018
 -0.000 -0.018  0.890
atom  109   Tr[ns(na)] =   4.97976
    eigenvalues:
  0.699  0.877  0.914
    eigenvectors:
  1.000  0.000  0.000
  0.000  0.308  0.692
  0.000  0.692  0.308
    occupations:
  0.699 -0.001 -0.001
 -0.001  0.902 -0.017
 -0.001 -0.017  0.888
atom  110   Tr[ns(na)] =   5.02723
    eigenvalues:
  0.759  0.859  0.896
    eigenvectors:
  1.000  0.000  0.000
  0.000  0.995  0.005
  0.000  0.005  0.995
    occupations:
  0.759  0.001  0.001
  0.001  0.859  0.003
  0.001  0.003  0.896
atom  111   Tr[ns(na)] =   5.02602
    eigenvalues:
  0.759  0.858  0.896
    eigenvectors:
  1.000  0.000  0.000
  0.000  0.151  0.849
  0.000  0.849  0.151
    occupations:
  0.759  0.002  0.001
  0.002  0.890  0.013
  0.001  0.013  0.864
atom  112   Tr[ns(na)] =   4.82033
    eigenvalues:
  0.708  0.835  0.867
    eigenvectors:
  1.000  0.000  0.000
  0.000  0.082  0.918
  0.000  0.918  0.082
    occupations:
  0.708  0.001  0.001
  0.001  0.865  0.009
  0.001  0.009  0.838
atom  113   Tr[ns(na)] =   4.98004
    eigenvalues:
  0.699  0.876  0.914
    eigenvectors:
  1.000  0.000  0.000
  0.000  0.305  0.695
  0.000  0.695  0.305
    occupations:
  0.699  0.001  0.001
  0.001  0.903 -0.017
  0.001 -0.017  0.888
atom  114   Tr[ns(na)] =   4.98456
    eigenvalues:
  0.702  0.877  0.914
    eigenvectors:
  1.000  0.000  0.000
  0.000  0.368  0.632
  0.000  0.632  0.368
    occupations:
  0.702  0.003  0.000
  0.003  0.900 -0.018
  0.000 -0.018  0.890
atom  115   Tr[ns(na)] =   4.81970
    eigenvalues:
  0.708  0.836  0.867
    eigenvectors:
  1.000  0.000  0.000
  0.000  0.917  0.083
  0.000  0.083  0.917
    occupations:
  0.708 -0.001 -0.000
 -0.001  0.838 -0.009
 -0.000 -0.009  0.864
atom  116   Tr[ns(na)] =   5.02716
    eigenvalues:
  0.759  0.859  0.896
    eigenvectors:
  1.000  0.000  0.000
  0.000  0.849  0.151
  0.000  0.151  0.849
    occupations:
  0.759 -0.001  0.000
 -0.001  0.864 -0.013
  0.000 -0.013  0.891
atom  117   Tr[ns(na)] =   5.02729
    eigenvalues:
  0.759  0.859  0.896
    eigenvectors:
  1.000  0.000  0.000
  0.000  0.004  0.996
  0.000  0.996  0.004
    occupations:
  0.759 -0.001  0.000
 -0.001  0.896 -0.002
  0.000 -0.002  0.859
atom  118   Tr[ns(na)] =   4.81792
    eigenvalues:
  0.707  0.835  0.867
    eigenvectors:
  1.000  0.000  0.000
  0.000  0.001  0.999
  0.000  0.999  0.001
    occupations:
  0.707 -0.000  0.000
 -0.000  0.867  0.001
  0.000  0.001  0.835
atom  119   Tr[ns(na)] =   4.98068
    eigenvalues:
  0.700  0.876  0.914
    eigenvectors:
  1.000  0.000  0.000
  0.000  0.635  0.365
  0.000  0.365  0.635
    occupations:
  0.700  0.000  0.001
  0.000  0.890  0.018
  0.001  0.018  0.900
atom  120   Tr[ns(na)] =   4.98133
    eigenvalues:
  0.700  0.876  0.914
    eigenvectors:
  1.000  0.000  0.000
  0.000  0.697  0.303
  0.000  0.303  0.697
    occupations:
  0.700 -0.001 -0.001
 -0.001  0.888  0.017
 -0.001  0.017  0.903
atom  121   Tr[ns(na)] =   5.00180
    eigenvalues:
  0.716  0.876  0.909
    eigenvectors:
  1.000  0.000  0.000
  0.000  0.008  0.992
  0.000  0.992  0.008
    occupations:
  0.716 -0.000  0.001
 -0.000  0.909 -0.003
  0.001 -0.003  0.877
atom  122   Tr[ns(na)] =   4.99899
    eigenvalues:
  0.714  0.876  0.909
    eigenvectors:
  1.000  0.000  0.000
  0.000  0.827  0.173
  0.000  0.173  0.827
    occupations:
  0.714 -0.001  0.001
 -0.001  0.882 -0.013
  0.001 -0.013  0.903
atom  123   Tr[ns(na)] =   4.99809
    eigenvalues:
  0.714  0.876  0.909
    eigenvectors:
  1.000  0.000  0.000
  0.000  0.991  0.009
  0.000  0.009  0.991
    occupations:
  0.714  0.001  0.000
  0.001  0.876  0.003
  0.000  0.003  0.909
atom  124   Tr[ns(na)] =   5.00073
    eigenvalues:
  0.715  0.876  0.909
    eigenvectors:
  1.000  0.000  0.000
  0.000  0.166  0.834
  0.000  0.834  0.166
    occupations:
  0.715  0.002  0.001
  0.002  0.904  0.012
  0.001  0.012  0.882
atom  125   Tr[ns(na)] =   5.00212
    eigenvalues:
  0.716  0.876  0.909
    eigenvectors:
  1.000  0.000  0.000
  0.000  0.008  0.992
  0.000  0.992  0.008
    occupations:
  0.716  0.000 -0.000
  0.000  0.909 -0.003
 -0.000 -0.003  0.877
atom  126   Tr[ns(na)] =   4.99902
    eigenvalues:
  0.714  0.876  0.909
    eigenvectors:
  1.000  0.000  0.000
  0.000  0.829  0.171
  0.000  0.171  0.829
    occupations:
  0.714  0.000 -0.001
  0.000  0.882 -0.012
 -0.001 -0.012  0.903
atom  127   Tr[ns(na)] =   4.99775
    eigenvalues:
  0.714  0.876  0.909
    eigenvectors:
  1.000  0.000  0.000
  0.000  0.990  0.010
  0.000  0.010  0.990
    occupations:
  0.714 -0.001 -0.000
 -0.001  0.876  0.003
 -0.000  0.003  0.909
atom  128   Tr[ns(na)] =   5.00039
    eigenvalues:
  0.715  0.876  0.909
    eigenvectors:
  1.000  0.000  0.000
  0.000  0.164  0.836
  0.000  0.836  0.164
    occupations:
  0.715 -0.002 -0.001
 -0.002  0.904  0.012
 -0.001  0.012  0.881
atom  129   Tr[ns(na)] =   9.38683
    eigenvalues:
  0.900  0.938  0.951  0.951  0.952
    eigenvectors:
  0.000  1.000  0.000  0.000  0.000
  0.000  0.000  0.537  0.463  0.000
  0.000  0.000  0.463  0.537  0.000
  0.097  0.000  0.000  0.000  0.903
  0.903  0.000  0.000  0.000  0.097
    occupations:
  0.938  0.000  0.000 -0.000 -0.001
  0.000  0.951  0.000 -0.000  0.000
  0.000  0.000  0.951  0.000 -0.000
 -0.000 -0.000  0.000  0.947  0.015
 -0.001  0.000 -0.000  0.015  0.905
atom  130   Tr[ns(na)] =   5.28726
    eigenvalues:
  0.855  0.875  0.914
    eigenvectors:
  1.000  0.000  0.000
  0.000  0.347  0.653
  0.000  0.653  0.347
    occupations:
  0.855 -0.000  0.000
 -0.000  0.900 -0.019
  0.000 -0.019  0.888
atom  131   Tr[ns(na)] =   5.20982
    eigenvalues:
  0.777  0.883  0.945
    eigenvectors:
  1.000  0.000  0.000
  0.000  0.975  0.025
  0.000  0.025  0.975
    occupations:
  0.777 -0.000 -0.001
 -0.000  0.884 -0.010
 -0.001 -0.010  0.943
atom  132   Tr[ns(na)] =   5.21341
    eigenvalues:
  0.778  0.884  0.945
    eigenvectors:
  1.000  0.000  0.000
  0.000  0.024  0.976
  0.000  0.976  0.024
    occupations:
  0.778  0.001  0.001
  0.001  0.944  0.009
  0.001  0.009  0.885
atom  133   Tr[ns(na)] =   5.27907
    eigenvalues:
  0.852  0.874  0.914
    eigenvectors:
  1.000  0.000  0.000
  0.000  0.654  0.346
  0.000  0.346  0.654
    occupations:
  0.852 -0.000 -0.000
 -0.000  0.888  0.019
 -0.000  0.019  0.900
atom  134   Tr[ns(na)] =   5.21027
    eigenvalues:
  0.777  0.883  0.945
    eigenvectors:
  1.000  0.000  0.000
  0.000  0.024  0.976
  0.000  0.976  0.024
    occupations:
  0.777 -0.001 -0.001
 -0.001  0.943  0.009
 -0.001  0.009  0.885
atom  135   Tr[ns(na)] =   5.28418
    eigenvalues:
  0.854  0.874  0.914
    eigenvectors:
  1.000  0.000  0.000
  0.000  0.665  0.335
  0.000  0.335  0.665
    occupations:
  0.854  0.000  0.000
  0.000  0.888  0.019
  0.000  0.019  0.901
atom  136   Tr[ns(na)] =   5.21005
    eigenvalues:
  0.777  0.883  0.945
    eigenvectors:
  1.000  0.000  0.000
  0.000  0.974  0.026
  0.000  0.026  0.974
    occupations:
  0.777  0.000  0.001
  0.000  0.885 -0.010
  0.001 -0.010  0.943
atom  137   Tr[ns(na)] =   5.28030
    eigenvalues:
  0.853  0.874  0.914
    eigenvectors:
  1.000  0.000  0.000
  0.000  0.341  0.659
  0.000  0.659  0.341
    occupations:
  0.853  0.000 -0.000
  0.000  0.900 -0.019
 -0.000 -0.019  0.887
N of occupied +U levels =  689.138730
 --- exit write_ns ---

          k = 0.1667 0.1444-0.3690 (266428 PWs)   bands (ev):

[...]

          k = 0.1667-0.4331-0.3690 (266460 PWs)   bands (ev):

[...]

          k =-0.5000 0.1444-0.3690 (266316 PWs)   bands (ev):

[...]

          k =-0.1667 0.1444 0.3690 (266428 PWs)   bands (ev):

   -25.8276 -25.7914 -25.7760 -25.7214 -24.6022 -23.9510 -23.9451 -23.3316
   -22.8079 -22.7963 -22.7688 -22.7393 -22.7174 -22.6972 -22.6459 -22.6455
   -22.6225 -22.5372 -22.5026 -22.4794 -22.3917 -22.3600 -22.2938 -22.2753
   -22.1955 -22.1474 -22.0837 -22.0700 -21.9483 -21.9316 -21.8602 -21.8303
   -21.7944 -21.7552 -21.3998 -21.3278 -21.1860 -21.1519 -21.0216 -21.0118
   -20.6408 -20.6290 -20.5886 -20.4130 -20.1837 -20.1718 -20.0116 -19.8759
   -19.7287 -19.5332 -19.4767 -19.3422 -19.2937 -19.2845 -19.2801 -19.2123
   -19.1647 -19.1390 -19.0157 -18.9977 -18.9882 -18.9146 -18.8022 -18.6714
   -18.3014 -18.2977 -17.9570 -17.7368 -17.7271 -17.3132 -17.1876 -17.0120
   -16.9998 -16.9958 -16.8565 -16.8428 -16.7858 -16.7662 -16.4612 -16.4268
   -16.2526 -16.2268 -16.2112 -16.1787 -16.1665 -16.1361 -15.9537 -15.9336
   -15.8827 -15.5334 -15.5177 -15.4702 -15.3871 -15.3048 -15.2374 -15.1901
   -15.1859 -15.0964 -15.0635 -14.8892 -14.8672 -14.7750 -14.6838 -14.6416
   -14.4626 -14.1641 -14.1427 -14.0388 -13.8639 -13.7872 -13.7800 -13.7724
   -13.7270 -13.6988 -13.6820 -13.6226 -13.5499 -13.5480 -13.5072 -13.4524
   -13.1379 -12.9828 -12.9400 -12.8877 -12.8785 -12.7355 -12.6726 -12.5311
   -12.4930 -12.4345 -12.3067 -12.2980 -12.1636 -12.1224 -12.0814 -11.9731
   -11.9315 -11.9154 -11.8841 -11.8738 -11.8244 -11.7909 -11.7870 -11.7201
   -11.6899 -11.6617 -11.5194 -11.4994 -11.4770 -11.4262 -11.3972 -11.3505
   -11.3442 -11.3159 -11.1537 -11.1175 -11.0846 -11.0673 -11.0654 -10.9341
   -10.8536 -10.8336 -10.6764 -10.6003 -10.5472 -10.5287 -10.5206 -10.4931
   -10.4868 -10.4770 -10.4316 -10.3997 -10.3899 -10.3539 -10.3301 -10.3194
   -10.3181 -10.2794 -10.2382 -10.1277 -10.0660 -10.0240  -9.9830  -9.9393
    -9.8710  -9.8490  -9.8109  -9.7914  -9.7619  -9.7546  -9.7271  -9.7251
    -9.6531  -9.6170  -9.5691  -9.5339  -9.4380  -9.4335  -9.3805  -9.3732
    -9.3187  -9.3040  -9.2447  -9.2232  -9.2161  -9.0830  -8.9568  -8.9330
    -8.8900  -8.8575  -8.8212  -8.8050  -8.7941  -8.7139  -8.6147  -8.6058
    -8.5778  -8.5271  -8.3983  -8.3396  -8.2738  -8.1869  -8.1307  -8.1159
    -8.1009  -8.0803  -8.0333  -8.0233  -7.9235  -7.9047  -7.8420  -7.7742
    -7.7221  -7.6770  -7.6628  -7.6516  -7.5808  -7.4867  -7.4510  -7.4091
    -7.3955  -7.3242  -7.2853  -7.2166  -7.0627  -7.0439  -7.0215  -6.9424
    -6.7938  -6.7813  -6.6307  -6.5963  -6.5857  -6.5569  -6.3541  -6.2400
    -6.1967  -6.1108  -6.0605  -6.0549  -6.0086  -5.9958  -5.9236  -5.9174
    -5.8420  -5.8127  -5.7093  -5.6675  -5.6280  -5.5845  -5.5747  -5.5557
    -5.5197  -5.4081  -5.3167  -5.2679  -5.1302  -5.0779  -4.9679  -4.9402
    -4.9079  -4.8081  -4.6953  -4.5540  -4.2552  -4.1615  -3.8155  -3.8013
    -2.9902  -2.9587  -2.2448  -2.2233  -1.8427  -1.8002  -0.8414  -0.8205
    -0.5936  -0.5766  -0.5016  -0.4234  -0.4090  -0.3298  -0.3199  -0.2928
    -0.2678  -0.2012  -0.1143   0.0580   0.0849   0.1369   0.3974   0.4372
     0.7132   0.7610   0.8680   0.9805   1.1632   1.2530   1.3360   1.3429

     highest occupied, lowest unoccupied level (ev):    -0.9317   -1.0980

!    total energy              =   -1712.81625352 Ry
     Harris-Foulkes estimate   =   -1712.81625395 Ry
     estimated scf accuracy    <       0.00000059 Ry

     The total energy is the sum of the following terms:

     one-electron contribution =  -17101.45000212 Ry
     hartree contribution      =    8659.05267623 Ry
     xc contribution           =    -516.29574561 Ry
     ewald contribution        =    7223.55957294 Ry
     Hubbard energy            =      22.31724504 Ry

     convergence has been achieved in  83 iterations

     Writing output data file x0.scf.slg.gs.ex1.3k.save

     General routines

     Parallel routines

     Hubbard U routines

   This run was terminated on:  23: 7:31   7Sep2019

   JOB DONE.